<?xml version="1.0"?>
<VTKFile type="UnstructuredGrid" version="0.1" byte_order="LittleEndian">
  <UnstructuredGrid>
    <Piece NumberOfCells="16" NumberOfPoints="50">
      <PointData Scalars="T" Vectors="u">
        <DataArray type="Float32" Name="T" NumberOfComponents="1" format="ascii">
          343.15 343.15 343.15 343.15 335.65 335.65 335.65 335.65 343.15 343.15 335.65 335.65
          343.15 343.15 335.65 335.65 343.15 343.15 335.65 335.65 328.15 328.15 328.15 328.15
          328.15 328.15 328.15 328.15 328.15 328.15 320.65 320.65 320.65 320.65 320.65 320.65
          320.65 320.65 320.65 320.65 313.15 313.15 313.15 313.15 313.15 313.15 313.15 313.15
          313.15 313.15
        </DataArray>
        <DataArray type="Float32" Name="pW" NumberOfComponents="1" format="ascii">
          2.08787e+07 2.08787e+07 2.08786e+07 2.08789e+07 1.82821e+07 1.82821e+07 1.82818e+07 1.82815e+07 2.08789e+07 2.08807e+07 1.82815e+07 1.82797e+07
          2.08786e+07 2.08789e+07 1.82818e+07 1.82815e+07 2.08787e+07 2.08787e+07 1.82821e+07 1.82821e+07 1.56848e+07 1.56848e+07 1.56843e+07 1.56827e+07
          1.56827e+07 1.57146e+07 1.56843e+07 1.56827e+07 1.56848e+07 1.56848e+07 1.30875e+07 1.30875e+07 1.30873e+07 1.30869e+07 1.30869e+07 1.30853e+07
          1.30873e+07 1.30869e+07 1.30875e+07 1.30875e+07 1.04901e+07 1.04901e+07 1.04901e+07 1.04901e+07 1.04901e+07 1.04901e+07 1.04901e+07 1.04901e+07
          1.04901e+07 1.04901e+07
        </DataArray>
        <DataArray type="Float32" Name="pN" NumberOfComponents="1" format="ascii">
          2.08962e+07 2.08962e+07 2.08961e+07 2.08965e+07 1.82997e+07 1.82997e+07 1.82994e+07 1.82991e+07 2.08965e+07 2.08982e+07 1.82991e+07 1.82973e+07
          2.08961e+07 2.08965e+07 1.82994e+07 1.82991e+07 2.08962e+07 2.08962e+07 1.82997e+07 1.82997e+07 1.57024e+07 1.57024e+07 1.57019e+07 1.57003e+07
          1.57003e+07 1.57322e+07 1.57019e+07 1.57003e+07 1.57024e+07 1.57024e+07 1.31051e+07 1.31051e+07 1.31048e+07 1.31045e+07 1.31045e+07 1.31029e+07
          1.31048e+07 1.31045e+07 1.31051e+07 1.31051e+07 1.05077e+07 1.05077e+07 1.05077e+07 1.05077e+07 1.05077e+07 1.05077e+07 1.05077e+07 1.05077e+07
          1.05077e+07 1.05077e+07
        </DataArray>
        <DataArray type="Float32" Name="pC" NumberOfComponents="1" format="ascii">
          17569.9 17569.9 17569.9 17569.9 17569.9 17569.9 17569.9 17569.9 17569.9 17569.9 17569.9 17569.9
          17569.9 17569.9 17569.9 17569.9 17569.9 17569.9 17569.9 17569.9 17569.9 17569.9 17569.9 17569.9
          17569.9 17570.6 17569.9 17569.9 17569.9 17569.9 17569.9 17569.9 17569.9 17569.9 17569.9 17569.9
          17569.9 17569.9 17569.9 17569.9 17569.9 17569.9 17569.9 17569.9 17569.9 17569.9 17569.9 17569.9
          17569.9 17569.9
        </DataArray>
        <DataArray type="Float32" Name="SW" NumberOfComponents="1" format="ascii">
          1 1 1 1 1 1 1 1 1 1 1 1
          1 1 1 1 1 1 1 1 1 1 1 1
          1 0.999985 1 1 1 1 1 1 1 1 1 1
          1 1 1 1 1 1 1 1 1 1 1 1
          1 1
        </DataArray>
        <DataArray type="Float32" Name="SN" NumberOfComponents="1" format="ascii">
          0 0 0 0 0 0 0 0 0 0 0 0
          0 0 0 0 0 0 0 0 0 0 5.53686e-20 1.50343e-12
          1.50343e-12 1.48314e-05 5.53671e-20 1.50343e-12 0 0 0 0 3.13428e-27 1.3241e-19 1.32409e-19 2.19497e-12
          3.13427e-27 1.3241e-19 0 0 0 0 0 0 0 0 0 0
          0 0
        </DataArray>
        <DataArray type="Float32" Name="rhoW" NumberOfComponents="1" format="ascii">
          1056.55 1056.55 1056.55 1056.55 1059.66 1059.66 1059.66 1059.66 1056.55 1056.55 1059.66 1059.66
          1056.55 1056.55 1059.66 1059.66 1056.55 1056.55 1059.66 1059.66 1062.49 1062.49 1062.49 1062.49
          1062.49 1062.5 1062.49 1062.49 1062.49 1062.49 1064.99 1064.99 1064.99 1064.99 1064.99 1064.98
          1064.99 1064.99 1064.99 1064.99 1067.12 1067.12 1067.12 1067.12 1067.12 1067.12 1067.12 1067.12
          1067.12 1067.12
        </DataArray>
        <DataArray type="Float32" Name="rhoN" NumberOfComponents="1" format="ascii">
          695.737 695.737 695.736 695.742 675.355 675.355 675.349 675.342 695.742 695.772 675.342 675.303
          695.736 695.742 675.349 675.342 695.737 695.737 675.355 675.355 673.471 673.471 673.457 673.415
          673.415 674.245 673.457 673.415 673.471 673.471 669.582 669.582 669.573 669.562 669.562 669.506
          669.573 669.562 669.582 669.582 660.265 660.265 660.265 660.265 660.265 660.265 660.265 660.265
          660.265 660.265
        </DataArray>
        <DataArray type="Float32" Name="u" NumberOfComponents="3" format="ascii">
          -1.97296e-06 0 0 -4.07123e-14 0 0 -3.93317e-06 -3.93317e-06 0 -3.40134e-14 -1.34961e-05 0
          -1.7081e-06 0 4.2673e-06 -8.21726e-14 0 1.20408e-06 -1.54798e-06 -1.54798e-06 4.59428e-06 -2.67261e-13 -1.03498e-05 -1.74234e-06
          -1.34961e-05 -8.72173e-14 0 1.32216e-13 -1.0052e-13 0 -1.03498e-05 -2.77762e-13 -1.74234e-06 4.97113e-13 -2.31617e-13 -9.89639e-05
          -3.93317e-06 3.93317e-06 0 7.1976e-14 1.34961e-05 0 -1.54798e-06 1.54798e-06 4.59428e-06 1.08941e-13 1.03498e-05 -1.74234e-06
          -1.97296e-06 0 0 6.90176e-14 0 0 -1.7081e-06 0 4.2673e-06 9.1342e-14 0 1.20408e-06
          -5.26212e-06 0 1.06304e-05 1.28886e-14 0 1.1194e-05 -9.87207e-06 -9.87207e-06 1.1028e-05 1.18437e-13 -0.000113413 1.17761e-05
          -0.000113413 -1.04943e-13 1.17761e-05 -1.8588e-13 -5.74986e-13 1.21934e-05 -9.87207e-06 9.87207e-06 1.1028e-05 2.01963e-13 0.000113413 1.17761e-05
          -5.26212e-06 0 1.06304e-05 8.77731e-14 0 1.1194e-05 -1.15664e-06 0 1.59192e-05 -1.66614e-14 0 2.10784e-05
          -5.44738e-07 -5.44738e-07 1.74412e-05 -2.46879e-14 -8.99169e-06 2.73609e-05 -8.99169e-06 -2.45514e-13 2.73609e-05 -1.43423e-13 -9.52702e-14 0.000132764
          -5.44738e-07 5.44738e-07 1.74412e-05 7.85512e-14 8.99169e-06 2.73609e-05 -1.15664e-06 0 1.59192e-05 4.31436e-14 0 2.10784e-05
          -1.64153e-06 0 1.66183e-05 -2.7253e-14 0 1.83931e-05 -2.37623e-06 -2.37623e-06 1.93307e-05 -3.61824e-14 -6.26453e-06 2.64385e-05
          -6.26453e-06 -2.31283e-13 2.64385e-05 -8.6403e-14 -1.66826e-13 2.75843e-05 -2.37623e-06 2.37623e-06 1.93307e-05 3.90133e-14 6.26453e-06 2.64385e-05
          -1.64153e-06 0 1.66183e-05 5.16667e-14 0 1.83931e-05
        </DataArray>
      </PointData>
      <CellData Scalars="principal stress 1" Vectors="effective stress changes X">
        <DataArray type="Float32" Name="effective stress changes X" NumberOfComponents="3" format="ascii">
          -26.0752 50.4121 16.8745 -81.3016 91.8238 245.067 -81.3016 -91.8238 245.067 -26.0752 -50.4121 16.8745
          42.1948 291.982 49.9157 -1367.57 561.716 534.451 -1367.57 -561.716 534.451 42.1948 -291.982 49.9157
          47.181 289.966 -74.5584 -1370.44 559.941 -575.594 -1370.44 -559.941 -575.594 47.181 -289.966 -74.5584
          -6.13386 31.1451 -54.113 23.7489 61.6763 -311.181 23.7489 -61.6763 -311.181 -6.13387 -31.1451 -54.113
        </DataArray>
        <DataArray type="Float32" Name="effective stress changes Y" NumberOfComponents="3" format="ascii">
          50.4121 166.371 -7.28027 91.8238 -81.3016 245.067 -91.8238 -81.3016 -245.067 -50.4121 166.371 7.28027
          291.982 810.062 282.568 561.716 -1367.57 534.451 -561.716 -1367.57 -534.451 -291.982 810.062 -282.568
          289.966 795.468 -306.333 559.941 -1370.44 -575.594 -559.941 -1370.44 575.594 -289.966 795.468 306.333
          31.1451 113.348 -48.6447 61.6763 23.749 -311.181 -61.6763 23.7489 311.181 -31.1451 113.348 48.6447
        </DataArray>
        <DataArray type="Float32" Name="effective stress changes Z" NumberOfComponents="3" format="ascii">
          16.8745 -7.28027 -21.8807 245.067 245.067 554.605 245.067 -245.067 554.605 16.8745 7.28027 -21.8807
          49.9157 282.568 -47.3803 534.451 534.451 -1414.8 534.451 -534.451 -1414.8 49.9157 -282.568 -47.3803
          -74.5584 -306.333 -54.4964 -575.594 -575.594 -1497.1 -575.594 575.594 -1497.1 -74.5584 306.333 -54.4964
          -54.113 -48.6447 27.557 -311.181 -311.181 640.311 -311.181 311.181 640.311 -54.113 48.6447 27.557
        </DataArray>
        <DataArray type="Float32" Name="principal stress 1" NumberOfComponents="1" format="ascii">
          4.28906e+07 4.28909e+07 4.28909e+07 4.28906e+07 3.71722e+07 3.71731e+07 3.71731e+07 3.71722e+07 3.14534e+07 3.14544e+07 3.14544e+07 3.14534e+07
          2.57343e+07 2.57345e+07 2.57345e+07 2.57343e+07
        </DataArray>
        <DataArray type="Float32" Name="principal stress 2" NumberOfComponents="1" format="ascii">
          4.28904e+07 4.28903e+07 4.28903e+07 4.28904e+07 3.71714e+07 3.71731e+07 3.71731e+07 3.71714e+07 3.14527e+07 3.14544e+07 3.14544e+07 3.14527e+07
          2.57343e+07 2.57339e+07 2.57339e+07 2.57343e+07
        </DataArray>
        <DataArray type="Float32" Name="principal stress 3" NumberOfComponents="1" format="ascii">
          4.28904e+07 4.28903e+07 4.28903e+07 4.28904e+07 3.71713e+07 3.7173e+07 3.7173e+07 3.71713e+07 3.14526e+07 3.14542e+07 3.14542e+07 3.14526e+07
          2.57342e+07 2.57339e+07 2.57339e+07 2.57342e+07
        </DataArray>
        <DataArray type="Float32" Name="total stresses X" NumberOfComponents="3" format="ascii">
          4.28904e+07 50.4121 16.8745 4.28903e+07 91.8238 245.067 4.28903e+07 -91.8238 245.067 4.28904e+07 -50.4121 16.8745
          3.71714e+07 291.982 49.9157 3.71731e+07 561.716 534.451 3.71731e+07 -561.716 534.451 3.71714e+07 -291.982 49.9157
          3.14527e+07 289.966 -74.5584 3.14544e+07 559.941 -575.594 3.14544e+07 -559.941 -575.594 3.14527e+07 -289.966 -74.5584
          2.57342e+07 31.1451 -54.113 2.57339e+07 61.6763 -311.181 2.57339e+07 -61.6763 -311.181 2.57342e+07 -31.1451 -54.113
        </DataArray>
        <DataArray type="Float32" Name="total stresses Y" NumberOfComponents="3" format="ascii">
          50.4121 4.28906e+07 -7.28027 91.8238 4.28903e+07 245.067 -91.8238 4.28903e+07 -245.067 -50.4121 4.28906e+07 7.28027
          291.982 3.71722e+07 282.568 561.716 3.71731e+07 534.451 -561.716 3.71731e+07 -534.451 -291.982 3.71722e+07 -282.568
          289.966 3.14534e+07 -306.333 559.941 3.14544e+07 -575.594 -559.941 3.14544e+07 575.594 -289.966 3.14534e+07 306.333
          31.1451 2.57343e+07 -48.6447 61.6763 2.57339e+07 -311.181 -61.6763 2.57339e+07 311.181 -31.1451 2.57343e+07 48.6447
        </DataArray>
        <DataArray type="Float32" Name="total stresses Z" NumberOfComponents="3" format="ascii">
          16.8745 -7.28027 4.28904e+07 245.067 245.067 4.28909e+07 245.067 -245.067 4.28909e+07 16.8745 7.28027 4.28904e+07
          49.9157 282.568 3.71713e+07 534.451 534.451 3.7173e+07 534.451 -534.451 3.7173e+07 49.9157 -282.568 3.71713e+07
          -74.5584 -306.333 3.14526e+07 -575.594 -575.594 3.14542e+07 -575.594 575.594 3.14542e+07 -74.5584 306.333 3.14526e+07
          -54.113 -48.6447 2.57343e+07 -311.181 -311.181 2.57345e+07 -311.181 311.181 2.57345e+07 -54.113 48.6447 2.57343e+07
        </DataArray>
        <DataArray type="Float32" Name="initial stresses X" NumberOfComponents="3" format="ascii">
          4.28905e+07 0 0 4.28905e+07 0 0 4.28905e+07 0 0 4.28905e+07 0 0
          3.71718e+07 0 0 3.71718e+07 0 0 3.71718e+07 0 0 3.71718e+07 0 0
          3.14531e+07 0 0 3.14531e+07 0 0 3.14531e+07 0 0 3.14531e+07 0 0
          2.57343e+07 0 0 2.57343e+07 0 0 2.57343e+07 0 0 2.57343e+07 0 0
        </DataArray>
        <DataArray type="Float32" Name="initial stresses Y" NumberOfComponents="3" format="ascii">
          0 4.28905e+07 0 0 4.28905e+07 0 0 4.28905e+07 0 0 4.28905e+07 0
          0 3.71718e+07 0 0 3.71718e+07 0 0 3.71718e+07 0 0 3.71718e+07 0
          0 3.14531e+07 0 0 3.14531e+07 0 0 3.14531e+07 0 0 3.14531e+07 0
          0 2.57343e+07 0 0 2.57343e+07 0 0 2.57343e+07 0 0 2.57343e+07 0
        </DataArray>
        <DataArray type="Float32" Name="initial stresses Z" NumberOfComponents="3" format="ascii">
          0 0 4.28905e+07 0 0 4.28905e+07 0 0 4.28905e+07 0 0 4.28905e+07
          0 0 3.71718e+07 0 0 3.71718e+07 0 0 3.71718e+07 0 0 3.71718e+07
          0 0 3.14531e+07 0 0 3.14531e+07 0 0 3.14531e+07 0 0 3.14531e+07
          0 0 2.57343e+07 0 0 2.57343e+07 0 0 2.57343e+07 0 0 2.57343e+07
        </DataArray>
        <DataArray type="Float32" Name="delta pEff" NumberOfComponents="1" format="ascii">
          -93.4588 -185.879 -185.879 -93.4588 -451.051 2620.35 2620.35 -451.051 -437.656 2663.34 2663.34 -437.656
          -102.047 -450.662 -450.662 -102.047
        </DataArray>
        <DataArray type="Float32" Name="effectivePressure" NumberOfComponents="1" format="ascii">
          1.95803e+07 1.95802e+07 1.95802e+07 1.95803e+07 1.6983e+07 1.69861e+07 1.69861e+07 1.6983e+07 1.43857e+07 1.43888e+07 1.43888e+07 1.43857e+07
          1.17887e+07 1.17884e+07 1.17884e+07 1.17887e+07
        </DataArray>
        <DataArray type="Float32" Name="Pcr_tensile" NumberOfComponents="1" format="ascii">
          -2.33101e+07 -2.33101e+07 -2.33101e+07 -2.33101e+07 -2.01883e+07 -2.01869e+07 -2.01869e+07 -2.01883e+07 -1.70668e+07 -1.70654e+07 -1.70654e+07 -1.70668e+07
          -1.39455e+07 -1.39455e+07 -1.39455e+07 -1.39455e+07
        </DataArray>
        <DataArray type="Float32" Name="Pcr_shear" NumberOfComponents="1" format="ascii">
          -2.331e+07 -2.33098e+07 -2.33098e+07 -2.331e+07 -2.01878e+07 -2.01869e+07 -2.01869e+07 -2.01878e+07 -1.70664e+07 -1.70653e+07 -1.70653e+07 -1.70664e+07
          -1.39455e+07 -1.39452e+07 -1.39452e+07 -1.39455e+07
        </DataArray>
        <DataArray type="Float32" Name="effective Kxx" NumberOfComponents="1" format="ascii">
          9.99999e-15 9.99997e-15 9.99997e-15 9.99999e-15 9.99993e-15 1.00004e-14 1.00004e-14 9.99993e-15 9.99993e-15 1.00004e-14 1.00004e-14 9.99993e-15
          9.99999e-15 9.99994e-15 9.99994e-15 9.99999e-15
        </DataArray>
        <DataArray type="Float32" Name="effective Porosity" NumberOfComponents="1" format="ascii">
          0.2 0.2 0.2 0.2 0.2 0.2 0.2 0.2 0.2 0.2 0.2 0.2
          0.2 0.2 0.2 0.2
        </DataArray>
      </CellData>
      <Points>
        <DataArray type="Float32" Name="Coordinates" NumberOfComponents="3" format="ascii">
          250 0 0 500 0 0 250 250 0 500 250 0
          250 0 250 500 0 250 250 250 250 500 250 250
          250 500 0 500 500 0 250 500 250 500 500 250
          250 750 0 500 750 0 250 750 250 500 750 250
          250 1000 0 500 1000 0 250 1000 250 500 1000 250
          250 0 500 500 0 500 250 250 500 500 250 500
          250 500 500 500 500 500 250 750 500 500 750 500
          250 1000 500 500 1000 500 250 0 750 500 0 750
          250 250 750 500 250 750 250 500 750 500 500 750
          250 750 750 500 750 750 250 1000 750 500 1000 750
          250 0 1000 500 0 1000 250 250 1000 500 250 1000
          250 500 1000 500 500 1000 250 750 1000 500 750 1000
          250 1000 1000 500 1000 1000
        </DataArray>
      </Points>
      <Cells>
        <DataArray type="Int32" Name="connectivity" NumberOfComponents="1" format="ascii">
          0 1 3 2 4 5 7 6 2 3 9 8
          6 7 11 10 8 9 13 12 10 11 15 14
          12 13 17 16 14 15 19 18 4 5 7 6
          20 21 23 22 6 7 11 10 22 23 25 24
          10 11 15 14 24 25 27 26 14 15 19 18
          26 27 29 28 20 21 23 22 30 31 33 32
          22 23 25 24 32 33 35 34 24 25 27 26
          34 35 37 36 26 27 29 28 36 37 39 38
          30 31 33 32 40 41 43 42 32 33 35 34
          42 43 45 44 34 35 37 36 44 45 47 46
          36 37 39 38 46 47 49 48
        </DataArray>
        <DataArray type="Int32" Name="offsets" NumberOfComponents="1" format="ascii">
          8 16 24 32 40 48 56 64 72 80 88 96
          104 112 120 128
        </DataArray>
        <DataArray type="UInt8" Name="types" NumberOfComponents="1" format="ascii">
          12 12 12 12 12 12 12 12 12 12 12 12
          12 12 12 12
        </DataArray>
      </Cells>
    </Piece>
  </UnstructuredGrid>
</VTKFile>
