<?xml version="1.0"?>
<VTKFile type="UnstructuredGrid" version="0.1" byte_order="LittleEndian">
  <UnstructuredGrid>
    <Piece NumberOfCells="16" NumberOfPoints="50">
      <PointData Scalars="T" Vectors="u">
        <DataArray type="Float32" Name="T" NumberOfComponents="1" format="ascii">
          343.15 343.15 343.15 343.15 335.65 335.65 335.65 335.65 343.15 343.15 335.65 335.65
          343.15 343.15 335.65 335.65 343.15 343.15 335.65 335.65 328.15 328.15 328.15 328.15
          328.15 328.15 328.15 328.15 328.15 328.15 320.65 320.65 320.65 320.65 320.65 320.65
          320.65 320.65 320.65 320.65 313.15 313.15 313.15 313.15 313.15 313.15 313.15 313.15
          313.15 313.15
        </DataArray>
        <DataArray type="Float32" Name="pW" NumberOfComponents="1" format="ascii">
          2.09108e+07 2.09108e+07 2.11522e+07 2.12389e+07 1.83157e+07 1.83157e+07 1.87008e+07 1.90482e+07 2.12389e+07 2.13996e+07 1.90482e+07 1.91824e+07
          2.11522e+07 2.12389e+07 1.87008e+07 1.90482e+07 2.09108e+07 2.09108e+07 1.83157e+07 1.83157e+07 1.57134e+07 1.57134e+07 1.63926e+07 1.65411e+07
          1.65411e+07 2.45233e+07 1.63926e+07 1.65411e+07 1.57134e+07 1.57134e+07 1.31046e+07 1.31046e+07 1.34523e+07 1.37949e+07 1.37949e+07 1.39894e+07
          1.34523e+07 1.37949e+07 1.31046e+07 1.31046e+07 1.04901e+07 1.04901e+07 1.04901e+07 1.04901e+07 1.04901e+07 1.04901e+07 1.04901e+07 1.04901e+07
          1.04901e+07 1.04901e+07
        </DataArray>
        <DataArray type="Float32" Name="pN" NumberOfComponents="1" format="ascii">
          2.09283e+07 2.09283e+07 2.11697e+07 2.12565e+07 1.83333e+07 1.83333e+07 1.87184e+07 1.90658e+07 2.12565e+07 2.14172e+07 1.90658e+07 1.92e+07
          2.11697e+07 2.12565e+07 1.87184e+07 1.90658e+07 2.09283e+07 2.09283e+07 1.83333e+07 1.83333e+07 1.5731e+07 1.5731e+07 1.64102e+07 1.65587e+07
          1.65587e+07 2.45438e+07 1.64102e+07 1.65587e+07 1.5731e+07 1.5731e+07 1.31222e+07 1.31222e+07 1.34699e+07 1.38124e+07 1.38124e+07 1.40069e+07
          1.34699e+07 1.38124e+07 1.31222e+07 1.31222e+07 1.05077e+07 1.05077e+07 1.05077e+07 1.05077e+07 1.05077e+07 1.05077e+07 1.05077e+07 1.05077e+07
          1.05077e+07 1.05077e+07
        </DataArray>
        <DataArray type="Float32" Name="pC" NumberOfComponents="1" format="ascii">
          17569.9 17569.9 17569.9 17569.9 17569.9 17569.9 17569.9 17569.9 17569.9 17569.9 17569.9 17569.8
          17569.9 17569.9 17569.9 17569.9 17569.9 17569.9 17569.9 17569.9 17569.9 17569.9 17569.9 17569.9
          17569.9 20467.7 17569.9 17569.9 17569.9 17569.9 17569.9 17569.9 17569.9 17569.9 17569.9 17570.1
          17569.9 17569.9 17569.9 17569.9 17569.9 17569.9 17569.9 17569.9 17569.9 17569.9 17569.9 17569.9
          17569.9 17569.9
        </DataArray>
        <DataArray type="Float32" Name="SW" NumberOfComponents="1" format="ascii">
          1 1 1 1 1 1 1 1 1 1 1 1
          1 1 1 1 1 1 1 1 1 1 1 0.999999
          0.999999 0.938099 1 0.999999 1 1 1 1 1 1 1 0.999994
          1 1 1 1 1 1 1 1 1 1 1 1
          1 1
        </DataArray>
        <DataArray type="Float32" Name="SN" NumberOfComponents="1" format="ascii">
          0 0 0 0 0 0 -2.55006e-16 -2.85954e-11 0 0 -2.85954e-11 -1.90771e-06
          0 0 -2.55006e-16 -2.85954e-11 0 0 0 0 0 0 1.22683e-11 1.15208e-06
          1.15208e-06 0.0619015 1.22683e-11 1.15208e-06 0 0 0 0 1.64771e-15 9.82589e-11 9.82589e-11 5.80911e-06
          1.64771e-15 9.82589e-11 0 0 0 0 0 0 0 0 0 0
          0 0
        </DataArray>
        <DataArray type="Float32" Name="rhoW" NumberOfComponents="1" format="ascii">
          1056.56 1056.56 1056.65 1056.68 1059.68 1059.68 1059.82 1059.95 1056.68 1056.74 1059.95 1060
          1056.65 1056.68 1059.82 1059.95 1056.56 1056.56 1059.68 1059.68 1062.5 1062.5 1062.76 1062.81
          1062.81 1065.82 1062.76 1062.81 1062.5 1062.5 1064.99 1064.99 1065.13 1065.26 1065.26 1065.34
          1065.13 1065.26 1064.99 1064.99 1067.12 1067.12 1067.12 1067.12 1067.12 1067.12 1067.12 1067.12
          1067.12 1067.12
        </DataArray>
        <DataArray type="Float32" Name="rhoN" NumberOfComponents="1" format="ascii">
          696.287 696.287 700.31 701.729 676.066 676.066 684.062 690.898 701.729 704.326 690.898 693.449
          700.31 701.729 684.062 690.898 696.287 696.287 676.066 676.066 674.214 674.214 690.891 694.264
          694.264 806.405 690.891 694.264 674.214 674.214 670.167 670.167 681.6 691.793 691.793 697.196
          681.6 691.793 670.167 670.167 660.265 660.265 660.265 660.265 660.265 660.265 660.265 660.265
          660.265 660.265
        </DataArray>
        <DataArray type="Float32" Name="u" NumberOfComponents="3" format="ascii">
          -0.00277155 0 0 -1.54695e-14 0 0 -0.00520181 -0.00520181 0 -2.50259e-14 -0.00758968 0
          -0.00357935 0 0.0138348 -1.39857e-14 0 0.0124751 -0.00762265 -0.00762265 0.0113754 -2.09942e-14 -0.0123083 0.007474
          -0.00758968 1.40066e-14 0 -3.70754e-14 1.43706e-14 0 -0.0123083 2.53144e-14 0.007474 -3.84442e-14 2.54465e-14 -0.0187025
          -0.00520181 0.00520181 0 -3.41893e-14 0.00758968 0 -0.00762265 0.00762265 0.0113754 -4.08003e-14 0.0123083 0.007474
          -0.00277155 0 0 -2.39843e-14 0 0 -0.00357935 0 0.0138348 -2.61755e-14 0 0.0124751
          -0.00482172 0 0.0321837 -1.29802e-14 0 0.0329652 -0.0114343 -0.0114343 0.0331809 -1.79138e-14 -0.0385637 0.0340232
          -0.0385637 4.47982e-14 0.0340232 -4.25656e-14 3.68844e-14 0.0346988 -0.0114343 0.0114343 0.0331809 -5.16361e-14 0.0385637 0.0340232
          -0.00482172 0 0.0321837 -2.96162e-14 0 0.0329652 -0.00261688 0 0.0481444 -1.56999e-14 0 0.0520194
          -0.00588075 -0.00588075 0.0547624 -2.07578e-14 -0.0102909 0.0621726 -0.0102909 4.76463e-14 0.0621726 -4.5631e-14 3.23186e-14 0.0929006
          -0.00588075 0.00588075 0.0547624 -5.04998e-14 0.0102909 0.0621726 -0.00261688 0 0.0481444 -3.14825e-14 0 0.0520194
          -0.00332892 0 0.0544532 -2.43962e-14 0 0.0582693 -0.00503534 -0.00503534 0.0621787 -3.04972e-14 -0.00716444 0.0707033
          -0.00716444 4.75369e-14 0.0707033 -4.7659e-14 3.73042e-14 0.0800043 -0.00503534 0.00503534 0.0621787 -5.3383e-14 0.00716444 0.0707033
          -0.00332892 0 0.0544532 -4.66631e-14 0 0.0582693
        </DataArray>
      </PointData>
      <CellData Scalars="principal stress 1" Vectors="effective stress changes X">
        <DataArray type="Float32" Name="effective stress changes X" NumberOfComponents="3" format="ascii">
          -148564 33867.6 21224.4 -285388 35367.4 93043.3 -285388 -35367.4 93043.3 -148564 -33867.6 21224.4
          -211828 106177 21728.3 -796583 159075 146568 -796583 -159075 146568 -211828 -106177 21728.3
          -195985 103540 -51668.6 -778217 157698 -183706 -778217 -157698 -183706 -195985 -103540 -51668.6
          -112637 28773.9 -59398 -255731 32696.3 -149839 -255731 -32696.3 -149839 -112637 -28773.9 -59398
        </DataArray>
        <DataArray type="Float32" Name="effective stress changes Y" NumberOfComponents="3" format="ascii">
          33867.6 110925 36499.6 35367.4 -285388 93043.3 -35367.4 -285388 -93043.3 -33867.6 110925 -36499.6
          106177 275107 88680.7 159075 -796583 146568 -159075 -796583 -146568 -106177 275107 -88680.7
          103540 258632 -131632 157698 -778217 -183706 -157698 -778217 183706 -103540 258632 131632
          28773.9 113530 -102257 32696.3 -255731 -149839 -32696.3 -255731 149839 -28773.9 113530 102257
        </DataArray>
        <DataArray type="Float32" Name="effective stress changes Z" NumberOfComponents="3" format="ascii">
          21224.4 36499.6 -278484 93043.3 93043.3 -159881 93043.3 -93043.3 -159881 21224.4 -36499.6 -278484
          21728.3 88680.7 -510507 146568 146568 -1.08846e+06 146568 -146568 -1.08846e+06 21728.3 -88680.7 -510507
          -51668.6 -131632 -495945 -183706 -183706 -1.12778e+06 -183706 183706 -1.12778e+06 -51668.6 131632 -495945
          -59398 -102257 -170856 -149839 -149839 -171782 -149839 149839 -171782 -59398 102257 -170856
        </DataArray>
        <DataArray type="Float32" Name="principal stress 1" NumberOfComponents="1" format="ascii">
          4.32124e+07 4.32436e+07 4.32436e+07 4.32124e+07 3.7775e+07 3.8108e+07 3.8108e+07 3.7775e+07 3.20298e+07 3.23947e+07 3.23947e+07 3.20298e+07
          2.59776e+07 2.58892e+07 2.58892e+07 2.59776e+07
        </DataArray>
        <DataArray type="Float32" Name="principal stress 2" NumberOfComponents="1" format="ascii">
          4.29529e+07 4.31181e+07 4.31181e+07 4.29529e+07 3.7288e+07 3.8108e+07 3.8108e+07 3.7288e+07 3.15752e+07 3.23947e+07 3.23947e+07 3.15752e+07
          2.57514e+07 2.58052e+07 2.58052e+07 2.57514e+07
        </DataArray>
        <DataArray type="Float32" Name="principal stress 3" NumberOfComponents="1" format="ascii">
          4.28229e+07 4.31181e+07 4.31181e+07 4.28229e+07 3.69894e+07 3.78161e+07 3.78161e+07 3.69894e+07 3.12752e+07 3.20451e+07 3.20451e+07 3.12752e+07
          2.56932e+07 2.58052e+07 2.58052e+07 2.56932e+07
        </DataArray>
        <DataArray type="Float32" Name="total stresses X" NumberOfComponents="3" format="ascii">
          4.29529e+07 33867.6 21224.4 4.31181e+07 35367.4 93043.3 4.31181e+07 -35367.4 93043.3 4.29529e+07 -33867.6 21224.4
          3.7288e+07 106177 21728.3 3.8108e+07 159075 146568 3.8108e+07 -159075 146568 3.7288e+07 -106177 21728.3
          3.15752e+07 103540 -51668.6 3.23947e+07 157698 -183706 3.23947e+07 -157698 -183706 3.15752e+07 -103540 -51668.6
          2.57514e+07 28773.9 -59398 2.58052e+07 32696.3 -149839 2.58052e+07 -32696.3 -149839 2.57514e+07 -28773.9 -59398
        </DataArray>
        <DataArray type="Float32" Name="total stresses Y" NumberOfComponents="3" format="ascii">
          33867.6 4.32124e+07 36499.6 35367.4 4.31181e+07 93043.3 -35367.4 4.31181e+07 -93043.3 -33867.6 4.32124e+07 -36499.6
          106177 3.7775e+07 88680.7 159075 3.8108e+07 146568 -159075 3.8108e+07 -146568 -106177 3.7775e+07 -88680.7
          103540 3.20298e+07 -131632 157698 3.23947e+07 -183706 -157698 3.23947e+07 183706 -103540 3.20298e+07 131632
          28773.9 2.59776e+07 -102257 32696.3 2.58052e+07 -149839 -32696.3 2.58052e+07 149839 -28773.9 2.59776e+07 102257
        </DataArray>
        <DataArray type="Float32" Name="total stresses Z" NumberOfComponents="3" format="ascii">
          21224.4 36499.6 4.28229e+07 93043.3 93043.3 4.32436e+07 93043.3 -93043.3 4.32436e+07 21224.4 -36499.6 4.28229e+07
          21728.3 88680.7 3.69894e+07 146568 146568 3.78161e+07 146568 -146568 3.78161e+07 21728.3 -88680.7 3.69894e+07
          -51668.6 -131632 3.12752e+07 -183706 -183706 3.20451e+07 -183706 183706 3.20451e+07 -51668.6 131632 3.12752e+07
          -59398 -102257 2.56932e+07 -149839 -149839 2.58892e+07 -149839 149839 2.58892e+07 -59398 102257 2.56932e+07
        </DataArray>
        <DataArray type="Float32" Name="initial stresses X" NumberOfComponents="3" format="ascii">
          4.28905e+07 0 0 4.28905e+07 0 0 4.28905e+07 0 0 4.28905e+07 0 0
          3.71718e+07 0 0 3.71718e+07 0 0 3.71718e+07 0 0 3.71718e+07 0 0
          3.14531e+07 0 0 3.14531e+07 0 0 3.14531e+07 0 0 3.14531e+07 0 0
          2.57343e+07 0 0 2.57343e+07 0 0 2.57343e+07 0 0 2.57343e+07 0 0
        </DataArray>
        <DataArray type="Float32" Name="initial stresses Y" NumberOfComponents="3" format="ascii">
          0 4.28905e+07 0 0 4.28905e+07 0 0 4.28905e+07 0 0 4.28905e+07 0
          0 3.71718e+07 0 0 3.71718e+07 0 0 3.71718e+07 0 0 3.71718e+07 0
          0 3.14531e+07 0 0 3.14531e+07 0 0 3.14531e+07 0 0 3.14531e+07 0
          0 2.57343e+07 0 0 2.57343e+07 0 0 2.57343e+07 0 0 2.57343e+07 0
        </DataArray>
        <DataArray type="Float32" Name="initial stresses Z" NumberOfComponents="3" format="ascii">
          0 0 4.28905e+07 0 0 4.28905e+07 0 0 4.28905e+07 0 0 4.28905e+07
          0 0 3.71718e+07 0 0 3.71718e+07 0 0 3.71718e+07 0 0 3.71718e+07
          0 0 3.14531e+07 0 0 3.14531e+07 0 0 3.14531e+07 0 0 3.14531e+07
          0 0 2.57343e+07 0 0 2.57343e+07 0 0 2.57343e+07 0 0 2.57343e+07
        </DataArray>
        <DataArray type="Float32" Name="delta pEff" NumberOfComponents="1" format="ascii">
          210886 512906 512906 210886 328052 1.7328e+06 1.7328e+06 328052 318111 1.71984e+06 1.71984e+06 318111
          129751 326633 326633 129751
        </DataArray>
        <DataArray type="Float32" Name="effectivePressure" NumberOfComponents="1" format="ascii">
          1.98241e+07 2.01262e+07 2.01262e+07 1.98241e+07 1.73426e+07 1.87474e+07 1.87474e+07 1.73426e+07 1.47271e+07 1.61289e+07 1.61289e+07 1.47271e+07
          1.19271e+07 1.2124e+07 1.2124e+07 1.19271e+07
        </DataArray>
        <DataArray type="Float32" Name="Pcr_tensile" NumberOfComponents="1" format="ascii">
          -2.29988e+07 -2.29919e+07 -2.29919e+07 -2.29988e+07 -1.96467e+07 -1.90688e+07 -1.90688e+07 -1.96467e+07 -1.65481e+07 -1.59163e+07 -1.59163e+07 -1.65481e+07
          -1.37661e+07 -1.36813e+07 -1.36813e+07 -1.37661e+07
        </DataArray>
        <DataArray type="Float32" Name="Pcr_shear" NumberOfComponents="1" format="ascii">
          -2.28041e+07 -2.29291e+07 -2.29291e+07 -2.28041e+07 -1.92539e+07 -1.89228e+07 -1.89228e+07 -1.92539e+07 -1.61708e+07 -1.57415e+07 -1.57415e+07 -1.61708e+07
          -1.36239e+07 -1.36393e+07 -1.36393e+07 -1.36239e+07
        </DataArray>
        <DataArray type="Float32" Name="effective Kxx" NumberOfComponents="1" format="ascii">
          1.00281e-14 1.00651e-14 1.00651e-14 1.00281e-14 1.00398e-14 1.0241e-14 1.0241e-14 1.00398e-14 1.00386e-14 1.02413e-14 1.02413e-14 1.00386e-14
          1.00151e-14 1.00609e-14 1.00609e-14 1.00151e-14
        </DataArray>
        <DataArray type="Float32" Name="effective Porosity" NumberOfComponents="1" format="ascii">
          0.200025 0.200058 0.200058 0.200025 0.200036 0.200214 0.200214 0.200036 0.200035 0.200215 0.200215 0.200035
          0.200014 0.200055 0.200055 0.200014
        </DataArray>
      </CellData>
      <Points>
        <DataArray type="Float32" Name="Coordinates" NumberOfComponents="3" format="ascii">
          250 0 0 500 0 0 250 250 0 500 250 0
          250 0 250 500 0 250 250 250 250 500 250 250
          250 500 0 500 500 0 250 500 250 500 500 250
          250 750 0 500 750 0 250 750 250 500 750 250
          250 1000 0 500 1000 0 250 1000 250 500 1000 250
          250 0 500 500 0 500 250 250 500 500 250 500
          250 500 500 500 500 500 250 750 500 500 750 500
          250 1000 500 500 1000 500 250 0 750 500 0 750
          250 250 750 500 250 750 250 500 750 500 500 750
          250 750 750 500 750 750 250 1000 750 500 1000 750
          250 0 1000 500 0 1000 250 250 1000 500 250 1000
          250 500 1000 500 500 1000 250 750 1000 500 750 1000
          250 1000 1000 500 1000 1000
        </DataArray>
      </Points>
      <Cells>
        <DataArray type="Int32" Name="connectivity" NumberOfComponents="1" format="ascii">
          0 1 3 2 4 5 7 6 2 3 9 8
          6 7 11 10 8 9 13 12 10 11 15 14
          12 13 17 16 14 15 19 18 4 5 7 6
          20 21 23 22 6 7 11 10 22 23 25 24
          10 11 15 14 24 25 27 26 14 15 19 18
          26 27 29 28 20 21 23 22 30 31 33 32
          22 23 25 24 32 33 35 34 24 25 27 26
          34 35 37 36 26 27 29 28 36 37 39 38
          30 31 33 32 40 41 43 42 32 33 35 34
          42 43 45 44 34 35 37 36 44 45 47 46
          36 37 39 38 46 47 49 48
        </DataArray>
        <DataArray type="Int32" Name="offsets" NumberOfComponents="1" format="ascii">
          8 16 24 32 40 48 56 64 72 80 88 96
          104 112 120 128
        </DataArray>
        <DataArray type="UInt8" Name="types" NumberOfComponents="1" format="ascii">
          12 12 12 12 12 12 12 12 12 12 12 12
          12 12 12 12
        </DataArray>
      </Cells>
    </Piece>
  </UnstructuredGrid>
</VTKFile>
