<?xml version="1.0"?>
<VTKFile type="UnstructuredGrid" version="0.1" byte_order="LittleEndian">
  <UnstructuredGrid>
    <Piece NumberOfCells="64" NumberOfPoints="125">
      <PointData Scalars="T" Vectors="u">
        <DataArray type="Float32" Name="T" NumberOfComponents="1" format="ascii">
          343.15 343.15 343.15 343.15 335.65 335.65 335.65 335.65 343.15 343.15 335.65 335.65
          343.15 343.15 335.65 335.65 343.15 343.15 335.65 335.65 343.15 343.15 335.65 335.65
          343.15 335.65 343.15 335.65 343.15 335.65 343.15 343.15 335.65 335.65 343.15 335.65
          343.15 335.65 343.15 335.65 343.15 343.15 335.65 335.65 343.15 335.65 343.15 335.65
          343.15 335.65 328.15 328.15 328.15 328.15 328.15 328.15 328.15 328.15 328.15 328.15
          328.15 328.15 328.15 328.15 328.15 328.15 328.15 328.15 328.15 328.15 328.15 328.15
          328.15 328.15 328.15 320.65 320.65 320.65 320.65 320.65 320.65 320.65 320.65 320.65
          320.65 320.65 320.65 320.65 320.65 320.65 320.65 320.65 320.65 320.65 320.65 320.65
          320.65 320.65 320.65 320.65 313.15 313.15 313.15 313.15 313.15 313.15 313.15 313.15
          313.15 313.15 313.15 313.15 313.15 313.15 313.15 313.15 313.15 313.15 313.15 313.15
          313.15 313.15 313.15 313.15 313.15
        </DataArray>
        <DataArray type="Float32" Name="pW" NumberOfComponents="1" format="ascii">
          2.08787e+07 2.08787e+07 2.08787e+07 2.08786e+07 1.82821e+07 1.82821e+07 1.82821e+07 1.82818e+07 2.08787e+07 2.08789e+07 1.82821e+07 1.82815e+07
          2.08787e+07 2.08786e+07 1.82821e+07 1.82818e+07 2.08787e+07 2.08787e+07 1.82821e+07 1.82821e+07 2.08787e+07 2.08789e+07 1.82821e+07 1.82815e+07
          2.08807e+07 1.82797e+07 2.08789e+07 1.82815e+07 2.08787e+07 1.82821e+07 2.08787e+07 2.08786e+07 1.82821e+07 1.82818e+07 2.08789e+07 1.82815e+07
          2.08786e+07 1.82818e+07 2.08787e+07 1.82821e+07 2.08787e+07 2.08787e+07 1.82821e+07 1.82821e+07 2.08787e+07 1.82821e+07 2.08787e+07 1.82821e+07
          2.08787e+07 1.82821e+07 1.56848e+07 1.56848e+07 1.56848e+07 1.56843e+07 1.56848e+07 1.56827e+07 1.56848e+07 1.56843e+07 1.56848e+07 1.56848e+07
          1.56848e+07 1.56827e+07 1.57146e+07 1.56827e+07 1.56848e+07 1.56848e+07 1.56843e+07 1.56827e+07 1.56843e+07 1.56848e+07 1.56848e+07 1.56848e+07
          1.56848e+07 1.56848e+07 1.56848e+07 1.30875e+07 1.30875e+07 1.30875e+07 1.30873e+07 1.30875e+07 1.30869e+07 1.30875e+07 1.30873e+07 1.30875e+07
          1.30875e+07 1.30875e+07 1.30869e+07 1.30853e+07 1.30869e+07 1.30875e+07 1.30875e+07 1.30873e+07 1.30869e+07 1.30873e+07 1.30875e+07 1.30875e+07
          1.30875e+07 1.30875e+07 1.30875e+07 1.30875e+07 1.04901e+07 1.04901e+07 1.04901e+07 1.04901e+07 1.04901e+07 1.04901e+07 1.04901e+07 1.04901e+07
          1.04901e+07 1.04901e+07 1.04901e+07 1.04901e+07 1.04901e+07 1.04901e+07 1.04901e+07 1.04901e+07 1.04901e+07 1.04901e+07 1.04901e+07 1.04901e+07
          1.04901e+07 1.04901e+07 1.04901e+07 1.04901e+07 1.04901e+07
        </DataArray>
        <DataArray type="Float32" Name="pN" NumberOfComponents="1" format="ascii">
          2.08962e+07 2.08962e+07 2.08962e+07 2.08961e+07 1.82997e+07 1.82997e+07 1.82997e+07 1.82994e+07 2.08962e+07 2.08965e+07 1.82997e+07 1.82991e+07
          2.08962e+07 2.08961e+07 1.82997e+07 1.82994e+07 2.08962e+07 2.08962e+07 1.82997e+07 1.82997e+07 2.08962e+07 2.08965e+07 1.82997e+07 1.82991e+07
          2.08982e+07 1.82973e+07 2.08965e+07 1.82991e+07 2.08962e+07 1.82997e+07 2.08962e+07 2.08961e+07 1.82997e+07 1.82994e+07 2.08965e+07 1.82991e+07
          2.08961e+07 1.82994e+07 2.08962e+07 1.82997e+07 2.08962e+07 2.08962e+07 1.82997e+07 1.82997e+07 2.08962e+07 1.82997e+07 2.08962e+07 1.82997e+07
          2.08962e+07 1.82997e+07 1.57024e+07 1.57024e+07 1.57024e+07 1.57019e+07 1.57024e+07 1.57003e+07 1.57024e+07 1.57019e+07 1.57024e+07 1.57024e+07
          1.57024e+07 1.57003e+07 1.57322e+07 1.57003e+07 1.57024e+07 1.57024e+07 1.57019e+07 1.57003e+07 1.57019e+07 1.57024e+07 1.57024e+07 1.57024e+07
          1.57024e+07 1.57024e+07 1.57024e+07 1.31051e+07 1.31051e+07 1.31051e+07 1.31048e+07 1.31051e+07 1.31045e+07 1.31051e+07 1.31048e+07 1.31051e+07
          1.31051e+07 1.31051e+07 1.31045e+07 1.31029e+07 1.31045e+07 1.31051e+07 1.31051e+07 1.31048e+07 1.31045e+07 1.31048e+07 1.31051e+07 1.31051e+07
          1.31051e+07 1.31051e+07 1.31051e+07 1.31051e+07 1.05077e+07 1.05077e+07 1.05077e+07 1.05077e+07 1.05077e+07 1.05077e+07 1.05077e+07 1.05077e+07
          1.05077e+07 1.05077e+07 1.05077e+07 1.05077e+07 1.05077e+07 1.05077e+07 1.05077e+07 1.05077e+07 1.05077e+07 1.05077e+07 1.05077e+07 1.05077e+07
          1.05077e+07 1.05077e+07 1.05077e+07 1.05077e+07 1.05077e+07
        </DataArray>
        <DataArray type="Float32" Name="pC" NumberOfComponents="1" format="ascii">
          17569.9 17569.9 17569.9 17569.9 17569.9 17569.9 17569.9 17569.9 17569.9 17569.9 17569.9 17569.9
          17569.9 17569.9 17569.9 17569.9 17569.9 17569.9 17569.9 17569.9 17569.9 17569.9 17569.9 17569.9
          17569.9 17569.9 17569.9 17569.9 17569.9 17569.9 17569.9 17569.9 17569.9 17569.9 17569.9 17569.9
          17569.9 17569.9 17569.9 17569.9 17569.9 17569.9 17569.9 17569.9 17569.9 17569.9 17569.9 17569.9
          17569.9 17569.9 17569.9 17569.9 17569.9 17569.9 17569.9 17569.9 17569.9 17569.9 17569.9 17569.9
          17569.9 17569.9 17570.6 17569.9 17569.9 17569.9 17569.9 17569.9 17569.9 17569.9 17569.9 17569.9
          17569.9 17569.9 17569.9 17569.9 17569.9 17569.9 17569.9 17569.9 17569.9 17569.9 17569.9 17569.9
          17569.9 17569.9 17569.9 17569.9 17569.9 17569.9 17569.9 17569.9 17569.9 17569.9 17569.9 17569.9
          17569.9 17569.9 17569.9 17569.9 17569.9 17569.9 17569.9 17569.9 17569.9 17569.9 17569.9 17569.9
          17569.9 17569.9 17569.9 17569.9 17569.9 17569.9 17569.9 17569.9 17569.9 17569.9 17569.9 17569.9
          17569.9 17569.9 17569.9 17569.9 17569.9
        </DataArray>
        <DataArray type="Float32" Name="SW" NumberOfComponents="1" format="ascii">
          1 1 1 1 1 1 1 1 1 1 1 1
          1 1 1 1 1 1 1 1 1 1 1 1
          1 1 1 1 1 1 1 1 1 1 1 1
          1 1 1 1 1 1 1 1 1 1 1 1
          1 1 1 1 1 1 1 1 1 1 1 1
          1 1 0.999985 1 1 1 1 1 1 1 1 1
          1 1 1 1 1 1 1 1 1 1 1 1
          1 1 1 1 1 1 1 1 1 1 1 1
          1 1 1 1 1 1 1 1 1 1 1 1
          1 1 1 1 1 1 1 1 1 1 1 1
          1 1 1 1 1
        </DataArray>
        <DataArray type="Float32" Name="SN" NumberOfComponents="1" format="ascii">
          0 0 0 0 0 0 0 0 0 0 0 0
          0 0 0 0 0 0 0 0 0 0 0 0
          0 0 0 0 0 0 0 0 0 0 0 0
          0 0 0 0 0 0 0 0 0 0 0 0
          0 0 0 0 0 5.53698e-20 0 1.50343e-12 0 5.53697e-20 0 0
          0 1.50343e-12 1.48314e-05 1.50343e-12 0 0 5.53699e-20 1.50343e-12 5.53704e-20 0 0 0
          0 0 0 0 0 0 3.13457e-27 0 1.32414e-19 0 3.13452e-27 0
          0 0 1.32414e-19 2.19497e-12 1.32413e-19 0 0 3.13455e-27 1.32414e-19 3.13456e-27 0 0
          0 0 0 0 0 0 0 0 0 0 0 0
          0 0 0 0 0 0 0 0 0 0 0 0
          0 0 0 0 0
        </DataArray>
        <DataArray type="Float32" Name="rhoW" NumberOfComponents="1" format="ascii">
          1056.55 1056.55 1056.55 1056.55 1059.66 1059.66 1059.66 1059.66 1056.55 1056.55 1059.66 1059.66
          1056.55 1056.55 1059.66 1059.66 1056.55 1056.55 1059.66 1059.66 1056.55 1056.55 1059.66 1059.66
          1056.55 1059.66 1056.55 1059.66 1056.55 1059.66 1056.55 1056.55 1059.66 1059.66 1056.55 1059.66
          1056.55 1059.66 1056.55 1059.66 1056.55 1056.55 1059.66 1059.66 1056.55 1059.66 1056.55 1059.66
          1056.55 1059.66 1062.49 1062.49 1062.49 1062.49 1062.49 1062.49 1062.49 1062.49 1062.49 1062.49
          1062.49 1062.49 1062.5 1062.49 1062.49 1062.49 1062.49 1062.49 1062.49 1062.49 1062.49 1062.49
          1062.49 1062.49 1062.49 1064.99 1064.99 1064.99 1064.99 1064.99 1064.99 1064.99 1064.99 1064.99
          1064.99 1064.99 1064.99 1064.98 1064.99 1064.99 1064.99 1064.99 1064.99 1064.99 1064.99 1064.99
          1064.99 1064.99 1064.99 1064.99 1067.12 1067.12 1067.12 1067.12 1067.12 1067.12 1067.12 1067.12
          1067.12 1067.12 1067.12 1067.12 1067.12 1067.12 1067.12 1067.12 1067.12 1067.12 1067.12 1067.12
          1067.12 1067.12 1067.12 1067.12 1067.12
        </DataArray>
        <DataArray type="Float32" Name="rhoN" NumberOfComponents="1" format="ascii">
          695.737 695.737 695.737 695.736 675.355 675.355 675.355 675.349 695.737 695.742 675.355 675.342
          695.737 695.736 675.355 675.349 695.737 695.737 675.355 675.355 695.737 695.742 675.355 675.342
          695.772 675.303 695.742 675.342 695.737 675.355 695.737 695.736 675.355 675.349 695.742 675.342
          695.736 675.349 695.737 675.355 695.737 695.737 675.355 675.355 695.737 675.355 695.737 675.355
          695.737 675.355 673.471 673.471 673.471 673.457 673.471 673.415 673.471 673.457 673.471 673.471
          673.471 673.415 674.245 673.415 673.471 673.471 673.457 673.415 673.457 673.471 673.471 673.471
          673.471 673.471 673.471 669.582 669.582 669.582 669.573 669.582 669.562 669.582 669.573 669.582
          669.582 669.582 669.562 669.506 669.562 669.582 669.582 669.573 669.562 669.573 669.582 669.582
          669.582 669.582 669.582 669.582 660.265 660.265 660.265 660.265 660.265 660.265 660.265 660.265
          660.265 660.265 660.265 660.265 660.265 660.265 660.265 660.265 660.265 660.265 660.265 660.265
          660.265 660.265 660.265 660.265 660.265
        </DataArray>
        <DataArray type="Float32" Name="u" NumberOfComponents="3" format="ascii">
          0 0 0 -1.97296e-06 0 0 0 -1.97296e-06 0 -3.93317e-06 -3.93317e-06 0
          0 0 4.50451e-06 -1.7081e-06 0 4.2673e-06 0 -1.7081e-06 4.2673e-06 -1.54798e-06 -1.54798e-06 4.59428e-06
          -3.78082e-14 0 0 -4.76066e-14 -1.34961e-05 0 -4.02437e-14 0 1.20408e-06 -1.46697e-13 -1.03498e-05 -1.74234e-06
          1.97296e-06 0 0 3.93317e-06 -3.93317e-06 0 1.7081e-06 0 4.2673e-06 1.54798e-06 -1.54798e-06 4.59428e-06
          0 0 0 0 -1.97296e-06 0 0 0 4.50451e-06 0 -1.7081e-06 4.2673e-06
          0 1.57442e-14 0 -1.34961e-05 1.97486e-14 0 0 3.52791e-14 1.20408e-06 -1.03498e-05 3.76843e-14 -1.74234e-06
          -1.08073e-13 -2.99072e-13 0 -1.09318e-14 4.11799e-15 -9.89639e-05 1.34961e-05 4.64771e-14 0 1.03498e-05 1.75278e-13 -1.74234e-06
          0 4.83087e-14 0 0 9.33911e-14 1.20408e-06 0 1.97296e-06 0 -3.93317e-06 3.93317e-06 0
          0 1.7081e-06 4.2673e-06 -1.54798e-06 1.54798e-06 4.59428e-06 -2.08581e-14 1.34961e-05 0 -9.11819e-15 1.03498e-05 -1.74234e-06
          3.93317e-06 3.93317e-06 0 1.54798e-06 1.54798e-06 4.59428e-06 0 1.97296e-06 0 0 1.7081e-06 4.2673e-06
          0 0 0 -1.97296e-06 0 0 0 0 4.50451e-06 -1.7081e-06 0 4.2673e-06
          -5.18215e-15 0 0 1.78245e-14 0 1.20408e-06 1.97296e-06 0 0 1.7081e-06 0 4.2673e-06
          0 0 0 0 0 4.50451e-06 0 0 1.01828e-05 -5.26212e-06 0 1.06304e-05
          0 -5.26212e-06 1.06304e-05 -9.87207e-06 -9.87207e-06 1.1028e-05 9.51674e-14 0 1.1194e-05 2.62086e-13 -0.000113413 1.17761e-05
          5.26212e-06 0 1.06304e-05 9.87207e-06 -9.87207e-06 1.1028e-05 0 0 1.01828e-05 0 -5.26212e-06 1.06304e-05
          0 9.25283e-14 1.1194e-05 -0.000113413 3.09797e-13 1.17761e-05 -5.42592e-14 -8.91101e-13 1.21934e-05 0.000113413 2.83736e-13 1.17761e-05
          0 1.12155e-13 1.1194e-05 0 5.26212e-06 1.06304e-05 -9.87207e-06 9.87207e-06 1.1028e-05 2.36023e-13 0.000113413 1.17761e-05
          9.87207e-06 9.87207e-06 1.1028e-05 0 5.26212e-06 1.06304e-05 0 0 1.01828e-05 -5.26212e-06 0 1.06304e-05
          1.14802e-13 0 1.1194e-05 5.26212e-06 0 1.06304e-05 0 0 1.01828e-05 0 0 1.44722e-05
          -1.15664e-06 0 1.59192e-05 0 -1.15664e-06 1.59192e-05 -5.44738e-07 -5.44738e-07 1.74412e-05 1.04919e-13 0 2.10784e-05
          1.88325e-13 -8.99169e-06 2.73609e-05 1.15664e-06 0 1.59192e-05 5.44738e-07 -5.44738e-07 1.74412e-05 0 0 1.44722e-05
          0 -1.15664e-06 1.59192e-05 0 3.16928e-14 2.10784e-05 -8.99169e-06 2.09631e-14 2.73609e-05 1.76345e-14 1.71377e-14 0.000132764
          8.99169e-06 3.56923e-13 2.73609e-05 0 1.74448e-13 2.10784e-05 0 1.15664e-06 1.59192e-05 -5.44738e-07 5.44738e-07 1.74412e-05
          5.24308e-13 8.99169e-06 2.73609e-05 5.44738e-07 5.44738e-07 1.74412e-05 0 1.15664e-06 1.59192e-05 0 0 1.44722e-05
          -1.15664e-06 0 1.59192e-05 2.47647e-13 0 2.10784e-05 1.15664e-06 0 1.59192e-05 0 0 1.44722e-05
          0 0 1.55884e-05 -1.64153e-06 0 1.66183e-05 0 -1.64153e-06 1.66183e-05 -2.37623e-06 -2.37623e-06 1.93307e-05
          1.57007e-13 0 1.83931e-05 1.89476e-13 -6.26453e-06 2.64385e-05 1.64153e-06 0 1.66183e-05 2.37623e-06 -2.37623e-06 1.93307e-05
          0 0 1.55884e-05 0 -1.64153e-06 1.66183e-05 0 3.97844e-14 1.83931e-05 -6.26453e-06 4.03098e-14 2.64385e-05
          1.73529e-13 7.35824e-14 2.75843e-05 6.26453e-06 2.77773e-13 2.64385e-05 0 2.52172e-13 1.83931e-05 0 1.64153e-06 1.66183e-05
          -2.37623e-06 2.37623e-06 1.93307e-05 4.26958e-13 6.26453e-06 2.64385e-05 2.37623e-06 2.37623e-06 1.93307e-05 0 1.64153e-06 1.66183e-05
          0 0 1.55884e-05 -1.64153e-06 0 1.66183e-05 3.6937e-13 0 1.83931e-05 1.64153e-06 0 1.66183e-05
          0 0 1.55884e-05
        </DataArray>
      </PointData>
      <CellData Scalars="principal stress 1" Vectors="effective stress changes X">
        <DataArray type="Float32" Name="effective stress changes X" NumberOfComponents="3" format="ascii">
          46.9628 9.00043 -6.84956 -26.0752 50.4121 16.8744 -26.0752 -50.4121 -16.8745 46.9628 -9.00043 6.84956
          166.371 50.4121 -7.28028 -81.3016 91.8238 245.067 -81.3016 -91.8238 -245.067 166.371 -50.4121 7.28028
          166.371 -50.4121 -7.28028 -81.3016 -91.8238 245.067 -81.3016 91.8238 -245.067 166.371 50.4121 7.28028
          46.9628 -9.00043 -6.84956 -26.0752 -50.4121 16.8745 -26.0752 50.4121 -16.8745 46.9628 9.00043 6.84956
          111.855 22.2491 27.3578 42.1948 291.982 49.9157 42.1948 -291.982 -49.9157 111.855 -22.2491 -27.3578
          810.062 291.982 282.568 -1367.57 561.716 534.451 -1367.57 -561.716 -534.451 810.062 -291.982 -282.568
          810.062 -291.982 282.568 -1367.57 -561.716 534.451 -1367.57 561.716 -534.451 810.062 291.982 -282.568
          111.855 -22.2491 27.3578 42.1948 -291.982 49.9157 42.1948 291.982 -49.9157 111.855 22.2491 -27.3578
          104.829 19.9902 -43.1174 47.181 289.966 -74.5584 47.181 -289.966 74.5584 104.829 -19.9902 43.1174
          795.468 289.966 -306.333 -1370.44 559.941 -575.594 -1370.44 -559.941 575.594 795.468 -289.966 306.333
          795.468 -289.966 -306.333 -1370.44 -559.941 -575.594 -1370.44 559.941 575.594 795.468 289.966 306.333
          104.829 -19.9902 -43.1174 47.181 -289.966 -74.5584 47.181 289.966 74.5584 104.829 19.9902 43.1174
          40.3198 0.613978 -10.987 -6.13386 31.1451 -54.113 -6.13386 -31.1451 54.113 40.3198 -0.613978 10.987
          113.348 31.1451 -48.6447 23.749 61.6763 -311.181 23.749 -61.6763 311.181 113.348 -31.1451 48.6447
          113.348 -31.1451 -48.6447 23.7489 -61.6763 -311.181 23.749 61.6763 311.181 113.348 31.1451 48.6447
          40.3198 -0.613978 -10.987 -6.13387 -31.1451 -54.113 -6.13385 31.1451 54.113 40.3198 0.613978 10.987
        </DataArray>
        <DataArray type="Float32" Name="effective stress changes Y" NumberOfComponents="3" format="ascii">
          9.00043 46.9628 -6.84956 50.4121 166.371 -7.28028 -50.4121 166.371 -7.28028 -9.00043 46.9628 -6.84956
          50.4121 -26.0752 16.8744 91.8238 -81.3016 245.067 -91.8238 -81.3016 245.067 -50.4121 -26.0752 16.8745
          -50.4121 -26.0752 -16.8745 -91.8238 -81.3016 -245.067 91.8238 -81.3016 -245.067 50.4121 -26.0752 -16.8745
          -9.00043 46.9628 6.84956 -50.4121 166.371 7.28028 50.4121 166.371 7.28028 9.00043 46.9628 6.84956
          22.2491 111.855 27.3578 291.982 810.062 282.568 -291.982 810.062 282.568 -22.2491 111.855 27.3578
          291.982 42.1948 49.9157 561.716 -1367.57 534.451 -561.716 -1367.57 534.451 -291.982 42.1948 49.9157
          -291.982 42.1948 -49.9157 -561.716 -1367.57 -534.451 561.716 -1367.57 -534.451 291.982 42.1948 -49.9157
          -22.2491 111.855 -27.3578 -291.982 810.062 -282.568 291.982 810.062 -282.568 22.2491 111.855 -27.3578
          19.9902 104.829 -43.1174 289.966 795.468 -306.333 -289.966 795.468 -306.333 -19.9902 104.829 -43.1174
          289.966 47.181 -74.5584 559.941 -1370.44 -575.594 -559.941 -1370.44 -575.594 -289.966 47.181 -74.5584
          -289.966 47.181 74.5584 -559.941 -1370.44 575.594 559.941 -1370.44 575.594 289.966 47.181 74.5584
          -19.9902 104.829 43.1174 -289.966 795.468 306.333 289.966 795.468 306.333 19.9902 104.829 43.1174
          0.613978 40.3198 -10.987 31.1451 113.348 -48.6447 -31.1451 113.348 -48.6447 -0.613978 40.3198 -10.987
          31.1451 -6.13386 -54.113 61.6763 23.749 -311.181 -61.6763 23.749 -311.181 -31.1451 -6.13386 -54.113
          -31.1451 -6.13386 54.113 -61.6763 23.749 311.181 61.6763 23.749 311.181 31.1451 -6.13385 54.113
          -0.613978 40.3198 10.987 -31.1451 113.348 48.6447 31.1451 113.348 48.6447 0.613978 40.3198 10.987
        </DataArray>
        <DataArray type="Float32" Name="effective stress changes Z" NumberOfComponents="3" format="ascii">
          -6.84956 -6.84956 -87.0152 16.8744 -7.28028 -21.8807 -16.8745 -7.28028 -21.8807 6.84956 -6.84956 -87.0152
          -7.28028 16.8744 -21.8807 245.067 245.067 554.605 -245.067 245.067 554.605 7.28028 16.8745 -21.8807
          -7.28028 -16.8745 -21.8807 245.067 -245.067 554.605 -245.067 -245.067 554.605 7.28028 -16.8745 -21.8807
          -6.84956 6.84956 -87.0152 16.8745 7.28028 -21.8807 -16.8745 7.28028 -21.8807 6.84956 6.84956 -87.0152
          27.3578 27.3578 -104.288 49.9157 282.568 -47.3803 -49.9157 282.568 -47.3803 -27.3578 27.3578 -104.288
          282.568 49.9157 -47.3803 534.451 534.451 -1414.8 -534.451 534.451 -1414.8 -282.568 49.9157 -47.3803
          282.568 -49.9157 -47.3803 534.451 -534.451 -1414.8 -534.451 -534.451 -1414.8 -282.568 -49.9157 -47.3803
          27.3578 -27.3578 -104.288 49.9157 -282.568 -47.3803 -49.9157 -282.568 -47.3803 -27.3578 -27.3578 -104.288
          -43.1174 -43.1174 -85.7491 -74.5584 -306.333 -54.4964 74.5584 -306.333 -54.4964 43.1174 -43.1174 -85.7491
          -306.333 -74.5584 -54.4964 -575.594 -575.594 -1497.1 575.594 -575.594 -1497.1 306.333 -74.5584 -54.4964
          -306.333 74.5584 -54.4964 -575.594 575.594 -1497.1 575.594 575.594 -1497.1 306.333 74.5584 -54.4964
          -43.1174 43.1174 -85.7491 -74.5584 306.333 -54.4964 74.5584 306.333 -54.4964 43.1174 43.1174 -85.7491
          -10.987 -10.987 -10.2948 -54.113 -48.6447 27.557 54.113 -48.6447 27.557 10.987 -10.987 -10.2948
          -48.6447 -54.113 27.557 -311.181 -311.181 640.311 311.181 -311.181 640.311 48.6447 -54.113 27.557
          -48.6447 54.113 27.557 -311.181 311.181 640.311 311.181 311.181 640.311 48.6447 54.113 27.557
          -10.987 10.987 -10.2948 -54.113 48.6447 27.557 54.113 48.6447 27.557 10.987 10.987 -10.2948
        </DataArray>
        <DataArray type="Float32" Name="principal stress 1" NumberOfComponents="1" format="ascii">
          4.28906e+07 4.28906e+07 4.28906e+07 4.28906e+07 4.28906e+07 4.28911e+07 4.28911e+07 4.28906e+07 4.28906e+07 4.28911e+07 4.28911e+07 4.28906e+07
          4.28906e+07 4.28906e+07 4.28906e+07 4.28906e+07 3.71718e+07 3.71723e+07 3.71723e+07 3.71718e+07 3.71723e+07 3.71741e+07 3.71741e+07 3.71723e+07
          3.71723e+07 3.71741e+07 3.71741e+07 3.71723e+07 3.71718e+07 3.71723e+07 3.71723e+07 3.71718e+07 3.14531e+07 3.14536e+07 3.14536e+07 3.14531e+07
          3.14536e+07 3.14555e+07 3.14555e+07 3.14536e+07 3.14536e+07 3.14555e+07 3.14555e+07 3.14536e+07 3.14531e+07 3.14536e+07 3.14536e+07 3.14531e+07
          2.57343e+07 2.57344e+07 2.57344e+07 2.57343e+07 2.57344e+07 2.57348e+07 2.57348e+07 2.57344e+07 2.57344e+07 2.57348e+07 2.57348e+07 2.57344e+07
          2.57343e+07 2.57344e+07 2.57344e+07 2.57343e+07
        </DataArray>
        <DataArray type="Float32" Name="principal stress 2" NumberOfComponents="1" format="ascii">
          4.28905e+07 4.28904e+07 4.28904e+07 4.28905e+07 4.28904e+07 4.28902e+07 4.28902e+07 4.28904e+07 4.28904e+07 4.28902e+07 4.28902e+07 4.28904e+07
          4.28905e+07 4.28904e+07 4.28904e+07 4.28905e+07 3.71718e+07 3.71713e+07 3.71713e+07 3.71718e+07 3.71713e+07 3.71725e+07 3.71725e+07 3.71713e+07
          3.71713e+07 3.71725e+07 3.71725e+07 3.71713e+07 3.71718e+07 3.71713e+07 3.71713e+07 3.71718e+07 3.14531e+07 3.14526e+07 3.14526e+07 3.14531e+07
          3.14526e+07 3.14538e+07 3.14538e+07 3.14526e+07 3.14526e+07 3.14538e+07 3.14538e+07 3.14526e+07 3.14531e+07 3.14526e+07 3.14526e+07 3.14531e+07
          2.57343e+07 2.57343e+07 2.57343e+07 2.57343e+07 2.57343e+07 2.57338e+07 2.57338e+07 2.57343e+07 2.57343e+07 2.57338e+07 2.57338e+07 2.57343e+07
          2.57343e+07 2.57343e+07 2.57343e+07 2.57343e+07
        </DataArray>
        <DataArray type="Float32" Name="principal stress 3" NumberOfComponents="1" format="ascii">
          4.28904e+07 4.28904e+07 4.28904e+07 4.28904e+07 4.28904e+07 4.28902e+07 4.28902e+07 4.28904e+07 4.28904e+07 4.28902e+07 4.28902e+07 4.28904e+07
          4.28904e+07 4.28904e+07 4.28904e+07 4.28904e+07 3.71716e+07 3.71713e+07 3.71713e+07 3.71716e+07 3.71712e+07 3.71725e+07 3.71725e+07 3.71712e+07
          3.71712e+07 3.71725e+07 3.71725e+07 3.71712e+07 3.71716e+07 3.71713e+07 3.71713e+07 3.71716e+07 3.14529e+07 3.14525e+07 3.14525e+07 3.14529e+07
          3.14525e+07 3.14537e+07 3.14537e+07 3.14525e+07 3.14525e+07 3.14537e+07 3.14537e+07 3.14525e+07 3.14529e+07 3.14525e+07 3.14525e+07 3.14529e+07
          2.57343e+07 2.57342e+07 2.57342e+07 2.57343e+07 2.57342e+07 2.57337e+07 2.57337e+07 2.57342e+07 2.57342e+07 2.57337e+07 2.57337e+07 2.57342e+07
          2.57343e+07 2.57342e+07 2.57342e+07 2.57343e+07
        </DataArray>
        <DataArray type="Float32" Name="total stresses X" NumberOfComponents="3" format="ascii">
          4.28905e+07 9.00043 -6.84956 4.28904e+07 50.4121 16.8744 4.28904e+07 -50.4121 -16.8745 4.28905e+07 -9.00043 6.84956
          4.28906e+07 50.4121 -7.28028 4.28903e+07 91.8238 245.067 4.28903e+07 -91.8238 -245.067 4.28906e+07 -50.4121 7.28028
          4.28906e+07 -50.4121 -7.28028 4.28903e+07 -91.8238 245.067 4.28903e+07 91.8238 -245.067 4.28906e+07 50.4121 7.28028
          4.28905e+07 -9.00043 -6.84956 4.28904e+07 -50.4121 16.8745 4.28904e+07 50.4121 -16.8745 4.28905e+07 9.00043 6.84956
          3.71718e+07 22.2491 27.3578 3.71714e+07 291.982 49.9157 3.71714e+07 -291.982 -49.9157 3.71718e+07 -22.2491 -27.3578
          3.71722e+07 291.982 282.568 3.71731e+07 561.716 534.451 3.71731e+07 -561.716 -534.451 3.71722e+07 -291.982 -282.568
          3.71722e+07 -291.982 282.568 3.71731e+07 -561.716 534.451 3.71731e+07 561.716 -534.451 3.71722e+07 291.982 -282.568
          3.71718e+07 -22.2491 27.3578 3.71714e+07 -291.982 49.9157 3.71714e+07 291.982 -49.9157 3.71718e+07 22.2491 -27.3578
          3.14531e+07 19.9902 -43.1174 3.14527e+07 289.966 -74.5584 3.14527e+07 -289.966 74.5584 3.14531e+07 -19.9902 43.1174
          3.14534e+07 289.966 -306.333 3.14544e+07 559.941 -575.594 3.14544e+07 -559.941 575.594 3.14534e+07 -289.966 306.333
          3.14534e+07 -289.966 -306.333 3.14544e+07 -559.941 -575.594 3.14544e+07 559.941 575.594 3.14534e+07 289.966 306.333
          3.14531e+07 -19.9902 -43.1174 3.14527e+07 -289.966 -74.5584 3.14527e+07 289.966 74.5584 3.14531e+07 19.9902 43.1174
          2.57343e+07 0.613978 -10.987 2.57342e+07 31.1451 -54.113 2.57342e+07 -31.1451 54.113 2.57343e+07 -0.613978 10.987
          2.57343e+07 31.1451 -48.6447 2.57339e+07 61.6763 -311.181 2.57339e+07 -61.6763 311.181 2.57343e+07 -31.1451 48.6447
          2.57343e+07 -31.1451 -48.6447 2.57339e+07 -61.6763 -311.181 2.57339e+07 61.6763 311.181 2.57343e+07 31.1451 48.6447
          2.57343e+07 -0.613978 -10.987 2.57342e+07 -31.1451 -54.113 2.57342e+07 31.1451 54.113 2.57343e+07 0.613978 10.987
        </DataArray>
        <DataArray type="Float32" Name="total stresses Y" NumberOfComponents="3" format="ascii">
          9.00043 4.28905e+07 -6.84956 50.4121 4.28906e+07 -7.28028 -50.4121 4.28906e+07 -7.28028 -9.00043 4.28905e+07 -6.84956
          50.4121 4.28904e+07 16.8744 91.8238 4.28903e+07 245.067 -91.8238 4.28903e+07 245.067 -50.4121 4.28904e+07 16.8745
          -50.4121 4.28904e+07 -16.8745 -91.8238 4.28903e+07 -245.067 91.8238 4.28903e+07 -245.067 50.4121 4.28904e+07 -16.8745
          -9.00043 4.28905e+07 6.84956 -50.4121 4.28906e+07 7.28028 50.4121 4.28906e+07 7.28028 9.00043 4.28905e+07 6.84956
          22.2491 3.71718e+07 27.3578 291.982 3.71722e+07 282.568 -291.982 3.71722e+07 282.568 -22.2491 3.71718e+07 27.3578
          291.982 3.71714e+07 49.9157 561.716 3.71731e+07 534.451 -561.716 3.71731e+07 534.451 -291.982 3.71714e+07 49.9157
          -291.982 3.71714e+07 -49.9157 -561.716 3.71731e+07 -534.451 561.716 3.71731e+07 -534.451 291.982 3.71714e+07 -49.9157
          -22.2491 3.71718e+07 -27.3578 -291.982 3.71722e+07 -282.568 291.982 3.71722e+07 -282.568 22.2491 3.71718e+07 -27.3578
          19.9902 3.14531e+07 -43.1174 289.966 3.14534e+07 -306.333 -289.966 3.14534e+07 -306.333 -19.9902 3.14531e+07 -43.1174
          289.966 3.14527e+07 -74.5584 559.941 3.14544e+07 -575.594 -559.941 3.14544e+07 -575.594 -289.966 3.14527e+07 -74.5584
          -289.966 3.14527e+07 74.5584 -559.941 3.14544e+07 575.594 559.941 3.14544e+07 575.594 289.966 3.14527e+07 74.5584
          -19.9902 3.14531e+07 43.1174 -289.966 3.14534e+07 306.333 289.966 3.14534e+07 306.333 19.9902 3.14531e+07 43.1174
          0.613978 2.57343e+07 -10.987 31.1451 2.57343e+07 -48.6447 -31.1451 2.57343e+07 -48.6447 -0.613978 2.57343e+07 -10.987
          31.1451 2.57342e+07 -54.113 61.6763 2.57339e+07 -311.181 -61.6763 2.57339e+07 -311.181 -31.1451 2.57342e+07 -54.113
          -31.1451 2.57342e+07 54.113 -61.6763 2.57339e+07 311.181 61.6763 2.57339e+07 311.181 31.1451 2.57342e+07 54.113
          -0.613978 2.57343e+07 10.987 -31.1451 2.57343e+07 48.6447 31.1451 2.57343e+07 48.6447 0.613978 2.57343e+07 10.987
        </DataArray>
        <DataArray type="Float32" Name="total stresses Z" NumberOfComponents="3" format="ascii">
          -6.84956 -6.84956 4.28904e+07 16.8744 -7.28028 4.28904e+07 -16.8745 -7.28028 4.28904e+07 6.84956 -6.84956 4.28904e+07
          -7.28028 16.8744 4.28904e+07 245.067 245.067 4.28909e+07 -245.067 245.067 4.28909e+07 7.28028 16.8745 4.28904e+07
          -7.28028 -16.8745 4.28904e+07 245.067 -245.067 4.28909e+07 -245.067 -245.067 4.28909e+07 7.28028 -16.8745 4.28904e+07
          -6.84956 6.84956 4.28904e+07 16.8745 7.28028 4.28904e+07 -16.8745 7.28028 4.28904e+07 6.84956 6.84956 4.28904e+07
          27.3578 27.3578 3.71716e+07 49.9157 282.568 3.71713e+07 -49.9157 282.568 3.71713e+07 -27.3578 27.3578 3.71716e+07
          282.568 49.9157 3.71713e+07 534.451 534.451 3.7173e+07 -534.451 534.451 3.7173e+07 -282.568 49.9157 3.71713e+07
          282.568 -49.9157 3.71713e+07 534.451 -534.451 3.7173e+07 -534.451 -534.451 3.7173e+07 -282.568 -49.9157 3.71713e+07
          27.3578 -27.3578 3.71716e+07 49.9157 -282.568 3.71713e+07 -49.9157 -282.568 3.71713e+07 -27.3578 -27.3578 3.71716e+07
          -43.1174 -43.1174 3.14529e+07 -74.5584 -306.333 3.14526e+07 74.5584 -306.333 3.14526e+07 43.1174 -43.1174 3.14529e+07
          -306.333 -74.5584 3.14526e+07 -575.594 -575.594 3.14542e+07 575.594 -575.594 3.14542e+07 306.333 -74.5584 3.14526e+07
          -306.333 74.5584 3.14526e+07 -575.594 575.594 3.14542e+07 575.594 575.594 3.14542e+07 306.333 74.5584 3.14526e+07
          -43.1174 43.1174 3.14529e+07 -74.5584 306.333 3.14526e+07 74.5584 306.333 3.14526e+07 43.1174 43.1174 3.14529e+07
          -10.987 -10.987 2.57343e+07 -54.113 -48.6447 2.57343e+07 54.113 -48.6447 2.57343e+07 10.987 -10.987 2.57343e+07
          -48.6447 -54.113 2.57343e+07 -311.181 -311.181 2.57345e+07 311.181 -311.181 2.57345e+07 48.6447 -54.113 2.57343e+07
          -48.6447 54.113 2.57343e+07 -311.181 311.181 2.57345e+07 311.181 311.181 2.57345e+07 48.6447 54.113 2.57343e+07
          -10.987 10.987 2.57343e+07 -54.113 48.6447 2.57343e+07 54.113 48.6447 2.57343e+07 10.987 10.987 2.57343e+07
        </DataArray>
        <DataArray type="Float32" Name="initial stresses X" NumberOfComponents="3" format="ascii">
          4.28905e+07 0 0 4.28905e+07 0 0 4.28905e+07 0 0 4.28905e+07 0 0
          4.28905e+07 0 0 4.28905e+07 0 0 4.28905e+07 0 0 4.28905e+07 0 0
          4.28905e+07 0 0 4.28905e+07 0 0 4.28905e+07 0 0 4.28905e+07 0 0
          4.28905e+07 0 0 4.28905e+07 0 0 4.28905e+07 0 0 4.28905e+07 0 0
          3.71718e+07 0 0 3.71718e+07 0 0 3.71718e+07 0 0 3.71718e+07 0 0
          3.71718e+07 0 0 3.71718e+07 0 0 3.71718e+07 0 0 3.71718e+07 0 0
          3.71718e+07 0 0 3.71718e+07 0 0 3.71718e+07 0 0 3.71718e+07 0 0
          3.71718e+07 0 0 3.71718e+07 0 0 3.71718e+07 0 0 3.71718e+07 0 0
          3.14531e+07 0 0 3.14531e+07 0 0 3.14531e+07 0 0 3.14531e+07 0 0
          3.14531e+07 0 0 3.14531e+07 0 0 3.14531e+07 0 0 3.14531e+07 0 0
          3.14531e+07 0 0 3.14531e+07 0 0 3.14531e+07 0 0 3.14531e+07 0 0
          3.14531e+07 0 0 3.14531e+07 0 0 3.14531e+07 0 0 3.14531e+07 0 0
          2.57343e+07 0 0 2.57343e+07 0 0 2.57343e+07 0 0 2.57343e+07 0 0
          2.57343e+07 0 0 2.57343e+07 0 0 2.57343e+07 0 0 2.57343e+07 0 0
          2.57343e+07 0 0 2.57343e+07 0 0 2.57343e+07 0 0 2.57343e+07 0 0
          2.57343e+07 0 0 2.57343e+07 0 0 2.57343e+07 0 0 2.57343e+07 0 0
        </DataArray>
        <DataArray type="Float32" Name="initial stresses Y" NumberOfComponents="3" format="ascii">
          0 4.28905e+07 0 0 4.28905e+07 0 0 4.28905e+07 0 0 4.28905e+07 0
          0 4.28905e+07 0 0 4.28905e+07 0 0 4.28905e+07 0 0 4.28905e+07 0
          0 4.28905e+07 0 0 4.28905e+07 0 0 4.28905e+07 0 0 4.28905e+07 0
          0 4.28905e+07 0 0 4.28905e+07 0 0 4.28905e+07 0 0 4.28905e+07 0
          0 3.71718e+07 0 0 3.71718e+07 0 0 3.71718e+07 0 0 3.71718e+07 0
          0 3.71718e+07 0 0 3.71718e+07 0 0 3.71718e+07 0 0 3.71718e+07 0
          0 3.71718e+07 0 0 3.71718e+07 0 0 3.71718e+07 0 0 3.71718e+07 0
          0 3.71718e+07 0 0 3.71718e+07 0 0 3.71718e+07 0 0 3.71718e+07 0
          0 3.14531e+07 0 0 3.14531e+07 0 0 3.14531e+07 0 0 3.14531e+07 0
          0 3.14531e+07 0 0 3.14531e+07 0 0 3.14531e+07 0 0 3.14531e+07 0
          0 3.14531e+07 0 0 3.14531e+07 0 0 3.14531e+07 0 0 3.14531e+07 0
          0 3.14531e+07 0 0 3.14531e+07 0 0 3.14531e+07 0 0 3.14531e+07 0
          0 2.57343e+07 0 0 2.57343e+07 0 0 2.57343e+07 0 0 2.57343e+07 0
          0 2.57343e+07 0 0 2.57343e+07 0 0 2.57343e+07 0 0 2.57343e+07 0
          0 2.57343e+07 0 0 2.57343e+07 0 0 2.57343e+07 0 0 2.57343e+07 0
          0 2.57343e+07 0 0 2.57343e+07 0 0 2.57343e+07 0 0 2.57343e+07 0
        </DataArray>
        <DataArray type="Float32" Name="initial stresses Z" NumberOfComponents="3" format="ascii">
          0 0 4.28905e+07 0 0 4.28905e+07 0 0 4.28905e+07 0 0 4.28905e+07
          0 0 4.28905e+07 0 0 4.28905e+07 0 0 4.28905e+07 0 0 4.28905e+07
          0 0 4.28905e+07 0 0 4.28905e+07 0 0 4.28905e+07 0 0 4.28905e+07
          0 0 4.28905e+07 0 0 4.28905e+07 0 0 4.28905e+07 0 0 4.28905e+07
          0 0 3.71718e+07 0 0 3.71718e+07 0 0 3.71718e+07 0 0 3.71718e+07
          0 0 3.71718e+07 0 0 3.71718e+07 0 0 3.71718e+07 0 0 3.71718e+07
          0 0 3.71718e+07 0 0 3.71718e+07 0 0 3.71718e+07 0 0 3.71718e+07
          0 0 3.71718e+07 0 0 3.71718e+07 0 0 3.71718e+07 0 0 3.71718e+07
          0 0 3.14531e+07 0 0 3.14531e+07 0 0 3.14531e+07 0 0 3.14531e+07
          0 0 3.14531e+07 0 0 3.14531e+07 0 0 3.14531e+07 0 0 3.14531e+07
          0 0 3.14531e+07 0 0 3.14531e+07 0 0 3.14531e+07 0 0 3.14531e+07
          0 0 3.14531e+07 0 0 3.14531e+07 0 0 3.14531e+07 0 0 3.14531e+07
          0 0 2.57343e+07 0 0 2.57343e+07 0 0 2.57343e+07 0 0 2.57343e+07
          0 0 2.57343e+07 0 0 2.57343e+07 0 0 2.57343e+07 0 0 2.57343e+07
          0 0 2.57343e+07 0 0 2.57343e+07 0 0 2.57343e+07 0 0 2.57343e+07
          0 0 2.57343e+07 0 0 2.57343e+07 0 0 2.57343e+07 0 0 2.57343e+07
        </DataArray>
        <DataArray type="Float32" Name="delta pEff" NumberOfComponents="1" format="ascii">
          -50.2657 -93.4588 -93.4588 -50.2657 -93.4588 -185.879 -185.879 -93.4588 -93.4588 -185.879 -185.879 -93.4588
          -50.2657 -93.4588 -93.4588 -50.2657 -103.762 -451.051 -451.051 -103.762 -451.051 2620.35 2620.35 -451.051
          -451.051 2620.35 2620.35 -451.051 -103.762 -451.051 -451.051 -103.762 -96.0599 -437.656 -437.656 -96.0599
          -437.656 2663.34 2663.34 -437.656 -437.656 2663.34 2663.34 -437.656 -96.0599 -437.656 -437.656 -96.06
          -30.375 -102.047 -102.047 -30.375 -102.047 -450.662 -450.662 -102.047 -102.047 -450.662 -450.662 -102.047
          -30.375 -102.047 -102.047 -30.375
        </DataArray>
        <DataArray type="Float32" Name="effectivePressure" NumberOfComponents="1" format="ascii">
          1.95803e+07 1.95803e+07 1.95803e+07 1.95803e+07 1.95803e+07 1.95802e+07 1.95802e+07 1.95803e+07 1.95803e+07 1.95802e+07 1.95802e+07 1.95803e+07
          1.95803e+07 1.95803e+07 1.95803e+07 1.95803e+07 1.69834e+07 1.6983e+07 1.6983e+07 1.69834e+07 1.6983e+07 1.69861e+07 1.69861e+07 1.6983e+07
          1.6983e+07 1.69861e+07 1.69861e+07 1.6983e+07 1.69834e+07 1.6983e+07 1.6983e+07 1.69834e+07 1.43861e+07 1.43857e+07 1.43857e+07 1.43861e+07
          1.43857e+07 1.43888e+07 1.43888e+07 1.43857e+07 1.43857e+07 1.43888e+07 1.43888e+07 1.43857e+07 1.43861e+07 1.43857e+07 1.43857e+07 1.43861e+07
          1.17888e+07 1.17887e+07 1.17887e+07 1.17888e+07 1.17887e+07 1.17884e+07 1.17884e+07 1.17887e+07 1.17887e+07 1.17884e+07 1.17884e+07 1.17887e+07
          1.17888e+07 1.17887e+07 1.17887e+07 1.17888e+07
        </DataArray>
        <DataArray type="Float32" Name="Pcr_tensile" NumberOfComponents="1" format="ascii">
          -2.33101e+07 -2.33101e+07 -2.33101e+07 -2.33101e+07 -2.33101e+07 -2.331e+07 -2.331e+07 -2.33101e+07 -2.33101e+07 -2.331e+07 -2.331e+07 -2.33101e+07
          -2.33101e+07 -2.33101e+07 -2.33101e+07 -2.33101e+07 -2.01882e+07 -2.01882e+07 -2.01882e+07 -2.01882e+07 -2.01882e+07 -2.01864e+07 -2.01864e+07 -2.01882e+07
          -2.01882e+07 -2.01864e+07 -2.01864e+07 -2.01882e+07 -2.01882e+07 -2.01882e+07 -2.01882e+07 -2.01882e+07 -1.70668e+07 -1.70668e+07 -1.70668e+07 -1.70668e+07
          -1.70667e+07 -1.70648e+07 -1.70648e+07 -1.70667e+07 -1.70667e+07 -1.70648e+07 -1.70648e+07 -1.70667e+07 -1.70668e+07 -1.70668e+07 -1.70668e+07 -1.70668e+07
          -1.39455e+07 -1.39455e+07 -1.39455e+07 -1.39455e+07 -1.39455e+07 -1.39454e+07 -1.39454e+07 -1.39455e+07 -1.39455e+07 -1.39454e+07 -1.39454e+07 -1.39455e+07
          -1.39455e+07 -1.39455e+07 -1.39455e+07 -1.39455e+07
        </DataArray>
        <DataArray type="Float32" Name="Pcr_shear" NumberOfComponents="1" format="ascii">
          -2.331e+07 -2.331e+07 -2.331e+07 -2.331e+07 -2.331e+07 -2.33095e+07 -2.33095e+07 -2.331e+07 -2.331e+07 -2.33095e+07 -2.33095e+07 -2.331e+07
          -2.331e+07 -2.331e+07 -2.331e+07 -2.331e+07 -2.01881e+07 -2.01877e+07 -2.01877e+07 -2.01881e+07 -2.01876e+07 -2.01856e+07 -2.01856e+07 -2.01876e+07
          -2.01876e+07 -2.01856e+07 -2.01856e+07 -2.01876e+07 -2.01881e+07 -2.01877e+07 -2.01877e+07 -2.01881e+07 -1.70667e+07 -1.70662e+07 -1.70662e+07 -1.70667e+07
          -1.70662e+07 -1.7064e+07 -1.7064e+07 -1.70662e+07 -1.70662e+07 -1.7064e+07 -1.7064e+07 -1.70662e+07 -1.70667e+07 -1.70662e+07 -1.70662e+07 -1.70667e+07
          -1.39455e+07 -1.39454e+07 -1.39454e+07 -1.39455e+07 -1.39454e+07 -1.39448e+07 -1.39448e+07 -1.39454e+07 -1.39454e+07 -1.39448e+07 -1.39448e+07 -1.39454e+07
          -1.39455e+07 -1.39454e+07 -1.39454e+07 -1.39455e+07
        </DataArray>
        <DataArray type="Float32" Name="effective Kxx" NumberOfComponents="1" format="ascii">
          1e-14 9.99999e-15 9.99999e-15 1e-14 9.99999e-15 9.99997e-15 9.99997e-15 9.99999e-15 9.99999e-15 9.99997e-15 9.99997e-15 9.99999e-15
          1e-14 9.99999e-15 9.99999e-15 1e-14 9.99999e-15 9.99993e-15 9.99993e-15 9.99999e-15 9.99993e-15 1.00004e-14 1.00004e-14 9.99993e-15
          9.99993e-15 1.00004e-14 1.00004e-14 9.99993e-15 9.99999e-15 9.99993e-15 9.99993e-15 9.99999e-15 9.99999e-15 9.99993e-15 9.99993e-15 9.99999e-15
          9.99993e-15 1.00004e-14 1.00004e-14 9.99993e-15 9.99993e-15 1.00004e-14 1.00004e-14 9.99993e-15 9.99999e-15 9.99993e-15 9.99993e-15 9.99999e-15
          9.99999e-15 9.99999e-15 9.99999e-15 9.99999e-15 9.99999e-15 9.99994e-15 9.99994e-15 9.99999e-15 9.99999e-15 9.99994e-15 9.99994e-15 9.99999e-15
          9.99999e-15 9.99999e-15 9.99999e-15 9.99999e-15
        </DataArray>
        <DataArray type="Float32" Name="effective Porosity" NumberOfComponents="1" format="ascii">
          0.2 0.2 0.2 0.2 0.2 0.2 0.2 0.2 0.2 0.2 0.2 0.2
          0.2 0.2 0.2 0.2 0.2 0.2 0.2 0.2 0.2 0.2 0.2 0.2
          0.2 0.2 0.2 0.2 0.2 0.2 0.2 0.2 0.2 0.2 0.2 0.2
          0.2 0.2 0.2 0.2 0.2 0.2 0.2 0.2 0.2 0.2 0.2 0.2
          0.2 0.2 0.2 0.2 0.2 0.2 0.2 0.2 0.2 0.2 0.2 0.2
          0.2 0.2 0.2 0.2
        </DataArray>
      </CellData>
      <Points>
        <DataArray type="Float32" Name="Coordinates" NumberOfComponents="3" format="ascii">
          0 0 0 250 0 0 0 250 0 250 250 0
          0 0 250 250 0 250 0 250 250 250 250 250
          500 0 0 500 250 0 500 0 250 500 250 250
          750 0 0 750 250 0 750 0 250 750 250 250
          1000 0 0 1000 250 0 1000 0 250 1000 250 250
          0 500 0 250 500 0 0 500 250 250 500 250
          500 500 0 500 500 250 750 500 0 750 500 250
          1000 500 0 1000 500 250 0 750 0 250 750 0
          0 750 250 250 750 250 500 750 0 500 750 250
          750 750 0 750 750 250 1000 750 0 1000 750 250
          0 1000 0 250 1000 0 0 1000 250 250 1000 250
          500 1000 0 500 1000 250 750 1000 0 750 1000 250
          1000 1000 0 1000 1000 250 0 0 500 250 0 500
          0 250 500 250 250 500 500 0 500 500 250 500
          750 0 500 750 250 500 1000 0 500 1000 250 500
          0 500 500 250 500 500 500 500 500 750 500 500
          1000 500 500 0 750 500 250 750 500 500 750 500
          750 750 500 1000 750 500 0 1000 500 250 1000 500
          500 1000 500 750 1000 500 1000 1000 500 0 0 750
          250 0 750 0 250 750 250 250 750 500 0 750
          500 250 750 750 0 750 750 250 750 1000 0 750
          1000 250 750 0 500 750 250 500 750 500 500 750
          750 500 750 1000 500 750 0 750 750 250 750 750
          500 750 750 750 750 750 1000 750 750 0 1000 750
          250 1000 750 500 1000 750 750 1000 750 1000 1000 750
          0 0 1000 250 0 1000 0 250 1000 250 250 1000
          500 0 1000 500 250 1000 750 0 1000 750 250 1000
          1000 0 1000 1000 250 1000 0 500 1000 250 500 1000
          500 500 1000 750 500 1000 1000 500 1000 0 750 1000
          250 750 1000 500 750 1000 750 750 1000 1000 750 1000
          0 1000 1000 250 1000 1000 500 1000 1000 750 1000 1000
          1000 1000 1000
        </DataArray>
      </Points>
      <Cells>
        <DataArray type="Int32" Name="connectivity" NumberOfComponents="1" format="ascii">
          0 1 3 2 4 5 7 6 1 8 9 3
          5 10 11 7 8 12 13 9 10 14 15 11
          12 16 17 13 14 18 19 15 2 3 21 20
          6 7 23 22 3 9 24 21 7 11 25 23
          9 13 26 24 11 15 27 25 13 17 28 26
          15 19 29 27 20 21 31 30 22 23 33 32
          21 24 34 31 23 25 35 33 24 26 36 34
          25 27 37 35 26 28 38 36 27 29 39 37
          30 31 41 40 32 33 43 42 31 34 44 41
          33 35 45 43 34 36 46 44 35 37 47 45
          36 38 48 46 37 39 49 47 4 5 7 6
          50 51 53 52 5 10 11 7 51 54 55 53
          10 14 15 11 54 56 57 55 14 18 19 15
          56 58 59 57 6 7 23 22 52 53 61 60
          7 11 25 23 53 55 62 61 11 15 27 25
          55 57 63 62 15 19 29 27 57 59 64 63
          22 23 33 32 60 61 66 65 23 25 35 33
          61 62 67 66 25 27 37 35 62 63 68 67
          27 29 39 37 63 64 69 68 32 33 43 42
          65 66 71 70 33 35 45 43 66 67 72 71
          35 37 47 45 67 68 73 72 37 39 49 47
          68 69 74 73 50 51 53 52 75 76 78 77
          51 54 55 53 76 79 80 78 54 56 57 55
          79 81 82 80 56 58 59 57 81 83 84 82
          52 53 61 60 77 78 86 85 53 55 62 61
          78 80 87 86 55 57 63 62 80 82 88 87
          57 59 64 63 82 84 89 88 60 61 66 65
          85 86 91 90 61 62 67 66 86 87 92 91
          62 63 68 67 87 88 93 92 63 64 69 68
          88 89 94 93 65 66 71 70 90 91 96 95
          66 67 72 71 91 92 97 96 67 68 73 72
          92 93 98 97 68 69 74 73 93 94 99 98
          75 76 78 77 100 101 103 102 76 79 80 78
          101 104 105 103 79 81 82 80 104 106 107 105
          81 83 84 82 106 108 109 107 77 78 86 85
          102 103 111 110 78 80 87 86 103 105 112 111
          80 82 88 87 105 107 113 112 82 84 89 88
          107 109 114 113 85 86 91 90 110 111 116 115
          86 87 92 91 111 112 117 116 87 88 93 92
          112 113 118 117 88 89 94 93 113 114 119 118
          90 91 96 95 115 116 121 120 91 92 97 96
          116 117 122 121 92 93 98 97 117 118 123 122
          93 94 99 98 118 119 124 123
        </DataArray>
        <DataArray type="Int32" Name="offsets" NumberOfComponents="1" format="ascii">
          8 16 24 32 40 48 56 64 72 80 88 96
          104 112 120 128 136 144 152 160 168 176 184 192
          200 208 216 224 232 240 248 256 264 272 280 288
          296 304 312 320 328 336 344 352 360 368 376 384
          392 400 408 416 424 432 440 448 456 464 472 480
          488 496 504 512
        </DataArray>
        <DataArray type="UInt8" Name="types" NumberOfComponents="1" format="ascii">
          12 12 12 12 12 12 12 12 12 12 12 12
          12 12 12 12 12 12 12 12 12 12 12 12
          12 12 12 12 12 12 12 12 12 12 12 12
          12 12 12 12 12 12 12 12 12 12 12 12
          12 12 12 12 12 12 12 12 12 12 12 12
          12 12 12 12
        </DataArray>
      </Cells>
    </Piece>
  </UnstructuredGrid>
</VTKFile>
