<?xml version="1.0"?>
<VTKFile type="UnstructuredGrid" version="0.1" byte_order="LittleEndian">
  <UnstructuredGrid>
    <Piece NumberOfCells="64" NumberOfPoints="125">
      <PointData Scalars="T" Vectors="u">
        <DataArray type="Float32" Name="T" NumberOfComponents="1" format="ascii">
          343.15 343.15 343.15 343.15 335.65 335.65 335.65 335.65 343.15 343.15 335.65 335.65
          343.15 343.15 335.65 335.65 343.15 343.15 335.65 335.65 343.15 343.15 335.65 335.65
          343.15 335.65 343.15 335.65 343.15 335.65 343.15 343.15 335.65 335.65 343.15 335.65
          343.15 335.65 343.15 335.65 343.15 343.15 335.65 335.65 343.15 335.65 343.15 335.65
          343.15 335.65 328.15 328.15 328.15 328.15 328.15 328.15 328.15 328.15 328.15 328.15
          328.15 328.15 328.15 328.15 328.15 328.15 328.15 328.15 328.15 328.15 328.15 328.15
          328.15 328.15 328.15 320.65 320.65 320.65 320.65 320.65 320.65 320.65 320.65 320.65
          320.65 320.65 320.65 320.65 320.65 320.65 320.65 320.65 320.65 320.65 320.65 320.65
          320.65 320.65 320.65 320.65 313.15 313.15 313.15 313.15 313.15 313.15 313.15 313.15
          313.15 313.15 313.15 313.15 313.15 313.15 313.15 313.15 313.15 313.15 313.15 313.15
          313.15 313.15 313.15 313.15 313.15
        </DataArray>
        <DataArray type="Float32" Name="pW" NumberOfComponents="1" format="ascii">
          2.09108e+07 2.09108e+07 2.09108e+07 2.11522e+07 1.83157e+07 1.83157e+07 1.83157e+07 1.87008e+07 2.09108e+07 2.12389e+07 1.83157e+07 1.90482e+07
          2.09108e+07 2.11522e+07 1.83157e+07 1.87008e+07 2.09108e+07 2.09108e+07 1.83157e+07 1.83157e+07 2.09108e+07 2.12389e+07 1.83157e+07 1.90482e+07
          2.13996e+07 1.91824e+07 2.12389e+07 1.90482e+07 2.09108e+07 1.83157e+07 2.09108e+07 2.11522e+07 1.83157e+07 1.87008e+07 2.12389e+07 1.90482e+07
          2.11522e+07 1.87008e+07 2.09108e+07 1.83157e+07 2.09108e+07 2.09108e+07 1.83157e+07 1.83157e+07 2.09108e+07 1.83157e+07 2.09108e+07 1.83157e+07
          2.09108e+07 1.83157e+07 1.57134e+07 1.57134e+07 1.57134e+07 1.63926e+07 1.57134e+07 1.65411e+07 1.57134e+07 1.63926e+07 1.57134e+07 1.57134e+07
          1.57134e+07 1.65411e+07 2.45233e+07 1.65411e+07 1.57134e+07 1.57134e+07 1.63926e+07 1.65411e+07 1.63926e+07 1.57134e+07 1.57134e+07 1.57134e+07
          1.57134e+07 1.57134e+07 1.57134e+07 1.31046e+07 1.31046e+07 1.31046e+07 1.34523e+07 1.31046e+07 1.37949e+07 1.31046e+07 1.34523e+07 1.31046e+07
          1.31046e+07 1.31046e+07 1.37949e+07 1.39894e+07 1.37949e+07 1.31046e+07 1.31046e+07 1.34523e+07 1.37949e+07 1.34523e+07 1.31046e+07 1.31046e+07
          1.31046e+07 1.31046e+07 1.31046e+07 1.31046e+07 1.04901e+07 1.04901e+07 1.04901e+07 1.04901e+07 1.04901e+07 1.04901e+07 1.04901e+07 1.04901e+07
          1.04901e+07 1.04901e+07 1.04901e+07 1.04901e+07 1.04901e+07 1.04901e+07 1.04901e+07 1.04901e+07 1.04901e+07 1.04901e+07 1.04901e+07 1.04901e+07
          1.04901e+07 1.04901e+07 1.04901e+07 1.04901e+07 1.04901e+07
        </DataArray>
        <DataArray type="Float32" Name="pN" NumberOfComponents="1" format="ascii">
          2.09283e+07 2.09283e+07 2.09283e+07 2.11697e+07 1.83333e+07 1.83333e+07 1.83333e+07 1.87184e+07 2.09283e+07 2.12565e+07 1.83333e+07 1.90658e+07
          2.09283e+07 2.11697e+07 1.83333e+07 1.87184e+07 2.09283e+07 2.09283e+07 1.83333e+07 1.83333e+07 2.09283e+07 2.12565e+07 1.83333e+07 1.90658e+07
          2.14172e+07 1.92e+07 2.12565e+07 1.90658e+07 2.09283e+07 1.83333e+07 2.09283e+07 2.11697e+07 1.83333e+07 1.87184e+07 2.12565e+07 1.90658e+07
          2.11697e+07 1.87184e+07 2.09283e+07 1.83333e+07 2.09283e+07 2.09283e+07 1.83333e+07 1.83333e+07 2.09283e+07 1.83333e+07 2.09283e+07 1.83333e+07
          2.09283e+07 1.83333e+07 1.5731e+07 1.5731e+07 1.5731e+07 1.64102e+07 1.5731e+07 1.65587e+07 1.5731e+07 1.64102e+07 1.5731e+07 1.5731e+07
          1.5731e+07 1.65587e+07 2.45438e+07 1.65587e+07 1.5731e+07 1.5731e+07 1.64102e+07 1.65587e+07 1.64102e+07 1.5731e+07 1.5731e+07 1.5731e+07
          1.5731e+07 1.5731e+07 1.5731e+07 1.31222e+07 1.31222e+07 1.31222e+07 1.34699e+07 1.31222e+07 1.38124e+07 1.31222e+07 1.34699e+07 1.31222e+07
          1.31222e+07 1.31222e+07 1.38124e+07 1.40069e+07 1.38124e+07 1.31222e+07 1.31222e+07 1.34699e+07 1.38124e+07 1.34699e+07 1.31222e+07 1.31222e+07
          1.31222e+07 1.31222e+07 1.31222e+07 1.31222e+07 1.05077e+07 1.05077e+07 1.05077e+07 1.05077e+07 1.05077e+07 1.05077e+07 1.05077e+07 1.05077e+07
          1.05077e+07 1.05077e+07 1.05077e+07 1.05077e+07 1.05077e+07 1.05077e+07 1.05077e+07 1.05077e+07 1.05077e+07 1.05077e+07 1.05077e+07 1.05077e+07
          1.05077e+07 1.05077e+07 1.05077e+07 1.05077e+07 1.05077e+07
        </DataArray>
        <DataArray type="Float32" Name="pC" NumberOfComponents="1" format="ascii">
          17569.9 17569.9 17569.9 17569.9 17569.9 17569.9 17569.9 17569.9 17569.9 17569.9 17569.9 17569.9
          17569.9 17569.9 17569.9 17569.9 17569.9 17569.9 17569.9 17569.9 17569.9 17569.9 17569.9 17569.9
          17569.9 17569.8 17569.9 17569.9 17569.9 17569.9 17569.9 17569.9 17569.9 17569.9 17569.9 17569.9
          17569.9 17569.9 17569.9 17569.9 17569.9 17569.9 17569.9 17569.9 17569.9 17569.9 17569.9 17569.9
          17569.9 17569.9 17569.9 17569.9 17569.9 17569.9 17569.9 17569.9 17569.9 17569.9 17569.9 17569.9
          17569.9 17569.9 20467.7 17569.9 17569.9 17569.9 17569.9 17569.9 17569.9 17569.9 17569.9 17569.9
          17569.9 17569.9 17569.9 17569.9 17569.9 17569.9 17569.9 17569.9 17569.9 17569.9 17569.9 17569.9
          17569.9 17569.9 17569.9 17570.1 17569.9 17569.9 17569.9 17569.9 17569.9 17569.9 17569.9 17569.9
          17569.9 17569.9 17569.9 17569.9 17569.9 17569.9 17569.9 17569.9 17569.9 17569.9 17569.9 17569.9
          17569.9 17569.9 17569.9 17569.9 17569.9 17569.9 17569.9 17569.9 17569.9 17569.9 17569.9 17569.9
          17569.9 17569.9 17569.9 17569.9 17569.9
        </DataArray>
        <DataArray type="Float32" Name="SW" NumberOfComponents="1" format="ascii">
          1 1 1 1 1 1 1 1 1 1 1 1
          1 1 1 1 1 1 1 1 1 1 1 1
          1 1 1 1 1 1 1 1 1 1 1 1
          1 1 1 1 1 1 1 1 1 1 1 1
          1 1 1 1 1 1 1 0.999999 1 1 1 1
          1 0.999999 0.938099 0.999999 1 1 1 0.999999 1 1 1 1
          1 1 1 1 1 1 1 1 1 1 1 1
          1 1 1 0.999994 1 1 1 1 1 1 1 1
          1 1 1 1 1 1 1 1 1 1 1 1
          1 1 1 1 1 1 1 1 1 1 1 1
          1 1 1 1 1
        </DataArray>
        <DataArray type="Float32" Name="SN" NumberOfComponents="1" format="ascii">
          0 0 0 0 0 0 0 -2.55006e-16 0 0 0 -2.85954e-11
          0 0 0 -2.55006e-16 0 0 0 0 0 0 0 -2.85954e-11
          0 -1.90771e-06 0 -2.85954e-11 0 0 0 0 0 -2.55006e-16 0 -2.85954e-11
          0 -2.55006e-16 0 0 0 0 0 0 0 0 0 0
          0 0 0 0 0 1.22683e-11 0 1.15208e-06 0 1.22683e-11 0 0
          0 1.15208e-06 0.0619015 1.15208e-06 0 0 1.22683e-11 1.15208e-06 1.22683e-11 0 0 0
          0 0 0 0 0 0 1.64771e-15 0 9.82589e-11 0 1.64771e-15 0
          0 0 9.82589e-11 5.80911e-06 9.82589e-11 0 0 1.64771e-15 9.82589e-11 1.64771e-15 0 0
          0 0 0 0 0 0 0 0 0 0 0 0
          0 0 0 0 0 0 0 0 0 0 0 0
          0 0 0 0 0
        </DataArray>
        <DataArray type="Float32" Name="rhoW" NumberOfComponents="1" format="ascii">
          1056.56 1056.56 1056.56 1056.65 1059.68 1059.68 1059.68 1059.82 1056.56 1056.68 1059.68 1059.95
          1056.56 1056.65 1059.68 1059.82 1056.56 1056.56 1059.68 1059.68 1056.56 1056.68 1059.68 1059.95
          1056.74 1060 1056.68 1059.95 1056.56 1059.68 1056.56 1056.65 1059.68 1059.82 1056.68 1059.95
          1056.65 1059.82 1056.56 1059.68 1056.56 1056.56 1059.68 1059.68 1056.56 1059.68 1056.56 1059.68
          1056.56 1059.68 1062.5 1062.5 1062.5 1062.76 1062.5 1062.81 1062.5 1062.76 1062.5 1062.5
          1062.5 1062.81 1065.82 1062.81 1062.5 1062.5 1062.76 1062.81 1062.76 1062.5 1062.5 1062.5
          1062.5 1062.5 1062.5 1064.99 1064.99 1064.99 1065.13 1064.99 1065.26 1064.99 1065.13 1064.99
          1064.99 1064.99 1065.26 1065.34 1065.26 1064.99 1064.99 1065.13 1065.26 1065.13 1064.99 1064.99
          1064.99 1064.99 1064.99 1064.99 1067.12 1067.12 1067.12 1067.12 1067.12 1067.12 1067.12 1067.12
          1067.12 1067.12 1067.12 1067.12 1067.12 1067.12 1067.12 1067.12 1067.12 1067.12 1067.12 1067.12
          1067.12 1067.12 1067.12 1067.12 1067.12
        </DataArray>
        <DataArray type="Float32" Name="rhoN" NumberOfComponents="1" format="ascii">
          696.287 696.287 696.287 700.31 676.066 676.066 676.066 684.062 696.287 701.729 676.066 690.898
          696.287 700.31 676.066 684.062 696.287 696.287 676.066 676.066 696.287 701.729 676.066 690.898
          704.326 693.449 701.729 690.898 696.287 676.066 696.287 700.31 676.066 684.062 701.729 690.898
          700.31 684.062 696.287 676.066 696.287 696.287 676.066 676.066 696.287 676.066 696.287 676.066
          696.287 676.066 674.214 674.214 674.214 690.891 674.214 694.264 674.214 690.891 674.214 674.214
          674.214 694.264 806.405 694.264 674.214 674.214 690.891 694.264 690.891 674.214 674.214 674.214
          674.214 674.214 674.214 670.167 670.167 670.167 681.6 670.167 691.793 670.167 681.6 670.167
          670.167 670.167 691.793 697.196 691.793 670.167 670.167 681.6 691.793 681.6 670.167 670.167
          670.167 670.167 670.167 670.167 660.265 660.265 660.265 660.265 660.265 660.265 660.265 660.265
          660.265 660.265 660.265 660.265 660.265 660.265 660.265 660.265 660.265 660.265 660.265 660.265
          660.265 660.265 660.265 660.265 660.265
        </DataArray>
        <DataArray type="Float32" Name="u" NumberOfComponents="3" format="ascii">
          0 0 0 -0.00277155 0 0 0 -0.00277155 0 -0.00520181 -0.00520181 0
          0 0 0.0145612 -0.00357935 0 0.0138348 0 -0.00357935 0.0138348 -0.00762265 -0.00762265 0.0113754
          -1.63979e-14 0 0 -2.58893e-14 -0.00758968 0 -1.53258e-14 0 0.0124751 -2.46952e-14 -0.0123083 0.007474
          0.00277155 0 0 0.00520181 -0.00520181 0 0.00357935 0 0.0138348 0.00762265 -0.00762265 0.0113754
          0 0 0 0 -0.00277155 0 0 0 0.0145612 0 -0.00357935 0.0138348
          0 -2.14586e-14 0 -0.00758968 -3.10759e-14 0 0 -2.34212e-14 0.0124751 -0.0123083 -3.68178e-14 0.007474
          -2.97767e-14 -3.52575e-14 0 -2.89874e-14 -4.48231e-14 -0.0187025 0.00758968 -2.58354e-14 0 0.0123083 -3.11301e-14 0.007474
          0 -1.82393e-14 0 0 -2.01583e-14 0.0124751 0 0.00277155 0 -0.00520181 0.00520181 0
          0 0.00357935 0.0138348 -0.00762265 0.00762265 0.0113754 -2.06788e-14 0.00758968 0 -1.89846e-14 0.0123083 0.007474
          0.00520181 0.00520181 0 0.00762265 0.00762265 0.0113754 0 0.00277155 0 0 0.00357935 0.0138348
          0 0 0 -0.00277155 0 0 0 0 0.0145612 -0.00357935 0 0.0138348
          -1.31558e-14 0 0 -1.2093e-14 0 0.0124751 0.00277155 0 0 0.00357935 0 0.0138348
          0 0 0 0 0 0.0145612 0 0 0.0313194 -0.00482172 0 0.0321837
          0 -0.00482172 0.0321837 -0.0114343 -0.0114343 0.0331809 -1.18752e-14 0 0.0329652 -1.77758e-14 -0.0385637 0.0340232
          0.00482172 0 0.0321837 0.0114343 -0.0114343 0.0331809 0 0 0.0313194 0 -0.00482172 0.0321837
          0 -2.57592e-14 0.0329652 -0.0385637 -4.02443e-14 0.0340232 -2.43873e-14 -6.51967e-14 0.0346988 0.0385637 -3.56469e-14 0.0340232
          0 -2.29542e-14 0.0329652 0 0.00482172 0.0321837 -0.0114343 0.0114343 0.0331809 -1.31924e-14 0.0385637 0.0340232
          0.0114343 0.0114343 0.0331809 0 0.00482172 0.0321837 0 0 0.0313194 -0.00482172 0 0.0321837
          -9.08114e-15 0 0.0329652 0.00482172 0 0.0321837 0 0 0.0313194 0 0 0.0448354
          -0.00261688 0 0.0481444 0 -0.00261688 0.0481444 -0.00588075 -0.00588075 0.0547624 -1.02362e-14 0 0.0520194
          -1.48656e-14 -0.0102909 0.0621726 0.00261688 0 0.0481444 0.00588075 -0.00588075 0.0547624 0 0 0.0448354
          0 -0.00261688 0.0481444 0 -3.12155e-14 0.0520194 -0.0102909 -4.69702e-14 0.0621726 -1.37621e-14 -7.12923e-14 0.0929006
          0.0102909 -3.94686e-14 0.0621726 0 -2.74933e-14 0.0520194 0 0.00261688 0.0481444 -0.00588075 0.00588075 0.0547624
          -7.37208e-15 0.0102909 0.0621726 0.00588075 0.00588075 0.0547624 0 0.00261688 0.0481444 0 0 0.0448354
          -0.00261688 0 0.0481444 -6.50998e-15 0 0.0520194 0.00261688 0 0.0481444 0 0 0.0448354
          0 0 0.0506485 -0.00332892 0 0.0544532 0 -0.00332892 0.0544532 -0.00503534 -0.00503534 0.0621787
          -1.4797e-14 0 0.0582693 -1.64628e-14 -0.00716444 0.0707033 0.00332892 0 0.0544532 0.00503534 -0.00503534 0.0621787
          0 0 0.0506485 0 -0.00332892 0.0544532 0 -4.76022e-14 0.0582693 -0.00716444 -5.69408e-14 0.0707033
          -1.52038e-14 -6.82184e-14 0.0800043 0.00716444 -5.13696e-14 0.0707033 0 -4.23153e-14 0.0582693 0 0.00332892 0.0544532
          -0.00503534 0.00503534 0.0621787 -1.08813e-14 0.00716444 0.0707033 0.00503534 0.00503534 0.0621787 0 0.00332892 0.0544532
          0 0 0.0506485 -0.00332892 0 0.0544532 -9.51683e-15 0 0.0582693 0.00332892 0 0.0544532
          0 0 0.0506485
        </DataArray>
      </PointData>
      <CellData Scalars="principal stress 1" Vectors="effective stress changes X">
        <DataArray type="Float32" Name="effective stress changes X" NumberOfComponents="3" format="ascii">
          70451.1 32367.8 16035.9 -148564 33867.6 21224.4 -148564 -33867.6 -21224.4 70451.1 -32367.8 -16035.9
          110925 33867.6 36499.6 -285388 35367.4 93043.3 -285388 -35367.4 -93043.3 110925 -33867.6 -36499.6
          110925 -33867.6 36499.6 -285388 -35367.4 93043.3 -285388 35367.4 -93043.3 110925 33867.6 -36499.6
          70451.1 -32367.8 16035.9 -148564 -33867.6 21224.4 -148564 33867.6 -21224.4 70451.1 32367.8 -16035.9
          103381 53279.6 15945.6 -211828 106177 21728.3 -211828 -106177 -21728.3 103381 -53279.6 -15945.6
          275107 106177 88680.7 -796583 159075 146568 -796583 -159075 -146568 275107 -106177 -88680.7
          275107 -106177 88680.7 -796583 -159075 146568 -796583 159075 -146568 275107 106177 -88680.7
          103381 -53279.6 15945.6 -211828 -106177 21728.3 -211828 106177 -21728.3 103381 53279.6 -15945.6
          94582.4 49382.4 -48867.3 -195985 103540 -51668.6 -195985 -103540 51668.6 94582.4 -49382.4 48867.3
          258632 103540 -131632 -778217 157698 -183706 -778217 -157698 183706 258632 -103540 131632
          258632 -103540 -131632 -778217 -157698 -183706 -778217 157698 183706 258632 103540 131632
          94582.4 -49382.4 -48867.3 -195985 -103540 -51668.6 -195985 103540 51668.6 94582.4 49382.4 48867.3
          97437.4 24851.4 -53976.3 -112637 28773.9 -59398 -112637 -28773.9 59398 97437.4 -24851.4 53976.3
          113530 28773.9 -102257 -255731 32696.3 -149839 -255731 -32696.3 149839 113530 -28773.9 102257
          113530 -28773.9 -102257 -255731 -32696.3 -149839 -255731 32696.3 149839 113530 28773.9 102257
          97437.4 -24851.4 -53976.3 -112637 -28773.9 -59398 -112637 28773.9 59398 97437.4 24851.4 53976.3
        </DataArray>
        <DataArray type="Float32" Name="effective stress changes Y" NumberOfComponents="3" format="ascii">
          32367.8 70451.1 16035.9 33867.6 110925 36499.6 -33867.6 110925 36499.6 -32367.8 70451.1 16035.9
          33867.6 -148564 21224.4 35367.4 -285388 93043.3 -35367.4 -285388 93043.3 -33867.6 -148564 21224.4
          -33867.6 -148564 -21224.4 -35367.4 -285388 -93043.3 35367.4 -285388 -93043.3 33867.6 -148564 -21224.4
          -32367.8 70451.1 -16035.9 -33867.6 110925 -36499.6 33867.6 110925 -36499.6 32367.8 70451.1 -16035.9
          53279.6 103381 15945.6 106177 275107 88680.7 -106177 275107 88680.7 -53279.6 103381 15945.6
          106177 -211828 21728.3 159075 -796583 146568 -159075 -796583 146568 -106177 -211828 21728.3
          -106177 -211828 -21728.3 -159075 -796583 -146568 159075 -796583 -146568 106177 -211828 -21728.3
          -53279.6 103381 -15945.6 -106177 275107 -88680.7 106177 275107 -88680.7 53279.6 103381 -15945.6
          49382.4 94582.4 -48867.3 103540 258632 -131632 -103540 258632 -131632 -49382.4 94582.4 -48867.3
          103540 -195985 -51668.6 157698 -778217 -183706 -157698 -778217 -183706 -103540 -195985 -51668.6
          -103540 -195985 51668.6 -157698 -778217 183706 157698 -778217 183706 103540 -195985 51668.6
          -49382.4 94582.4 48867.3 -103540 258632 131632 103540 258632 131632 49382.4 94582.4 48867.3
          24851.4 97437.4 -53976.3 28773.9 113530 -102257 -28773.9 113530 -102257 -24851.4 97437.4 -53976.3
          28773.9 -112637 -59398 32696.3 -255731 -149839 -32696.3 -255731 -149839 -28773.9 -112637 -59398
          -28773.9 -112637 59398 -32696.3 -255731 149839 32696.3 -255731 149839 28773.9 -112637 59398
          -24851.4 97437.4 53976.3 -28773.9 113530 102257 28773.9 113530 102257 24851.4 97437.4 53976.3
        </DataArray>
        <DataArray type="Float32" Name="effective stress changes Z" NumberOfComponents="3" format="ascii">
          16035.9 16035.9 -293456 21224.4 36499.6 -278484 -21224.4 36499.6 -278484 -16035.9 16035.9 -293456
          36499.6 21224.4 -278484 93043.3 93043.3 -159881 -93043.3 93043.3 -159881 -36499.6 21224.4 -278484
          36499.6 -21224.4 -278484 93043.3 -93043.3 -159881 -93043.3 -93043.3 -159881 -36499.6 -21224.4 -278484
          16035.9 -16035.9 -293456 21224.4 -36499.6 -278484 -21224.4 -36499.6 -278484 -16035.9 -16035.9 -293456
          15945.6 15945.6 -410217 21728.3 88680.7 -510507 -21728.3 88680.7 -510507 -15945.6 15945.6 -410217
          88680.7 21728.3 -510507 146568 146568 -1.08846e+06 -146568 146568 -1.08846e+06 -88680.7 21728.3 -510507
          88680.7 -21728.3 -510507 146568 -146568 -1.08846e+06 -146568 -146568 -1.08846e+06 -88680.7 -21728.3 -510507
          15945.6 -15945.6 -410217 21728.3 -88680.7 -510507 -21728.3 -88680.7 -510507 -15945.6 -15945.6 -410217
          -48867.3 -48867.3 -364281 -51668.6 -131632 -495945 51668.6 -131632 -495945 48867.3 -48867.3 -364281
          -131632 -51668.6 -495945 -183706 -183706 -1.12778e+06 183706 -183706 -1.12778e+06 131632 -51668.6 -495945
          -131632 51668.6 -495945 -183706 183706 -1.12778e+06 183706 183706 -1.12778e+06 131632 51668.6 -495945
          -48867.3 48867.3 -364281 -51668.6 131632 -495945 51668.6 131632 -495945 48867.3 48867.3 -364281
          -53976.3 -53976.3 -116107 -59398 -102257 -170856 59398 -102257 -170856 53976.3 -53976.3 -116107
          -102257 -59398 -170856 -149839 -149839 -171782 149839 -149839 -171782 102257 -59398 -170856
          -102257 59398 -170856 -149839 149839 -171782 149839 149839 -171782 102257 59398 -170856
          -53976.3 53976.3 -116107 -59398 102257 -170856 59398 102257 -170856 53976.3 53976.3 -116107
        </DataArray>
        <DataArray type="Float32" Name="principal stress 1" NumberOfComponents="1" format="ascii">
          4.30393e+07 4.32124e+07 4.32124e+07 4.30393e+07 4.32124e+07 4.32436e+07 4.32436e+07 4.32124e+07 4.32124e+07 4.32436e+07 4.32436e+07 4.32124e+07
          4.30393e+07 4.32124e+07 4.32124e+07 4.30393e+07 3.74082e+07 3.7775e+07 3.7775e+07 3.74082e+07 3.7775e+07 3.8108e+07 3.8108e+07 3.7775e+07
          3.7775e+07 3.8108e+07 3.8108e+07 3.7775e+07 3.74082e+07 3.7775e+07 3.7775e+07 3.74082e+07 3.1676e+07 3.20298e+07 3.20298e+07 3.1676e+07
          3.20298e+07 3.23947e+07 3.23947e+07 3.20298e+07 3.20298e+07 3.23947e+07 3.23947e+07 3.20298e+07 3.1676e+07 3.20298e+07 3.20298e+07 3.1676e+07
          2.58752e+07 2.59776e+07 2.59776e+07 2.58752e+07 2.59776e+07 2.58892e+07 2.58892e+07 2.59776e+07 2.59776e+07 2.58892e+07 2.58892e+07 2.59776e+07
          2.58752e+07 2.59776e+07 2.59776e+07 2.58752e+07
        </DataArray>
        <DataArray type="Float32" Name="principal stress 2" NumberOfComponents="1" format="ascii">
          4.30393e+07 4.29529e+07 4.29529e+07 4.30393e+07 4.29529e+07 4.31181e+07 4.31181e+07 4.29529e+07 4.29529e+07 4.31181e+07 4.31181e+07 4.29529e+07
          4.30393e+07 4.29529e+07 4.29529e+07 4.30393e+07 3.74082e+07 3.7288e+07 3.7288e+07 3.74082e+07 3.7288e+07 3.8108e+07 3.8108e+07 3.7288e+07
          3.7288e+07 3.8108e+07 3.8108e+07 3.7288e+07 3.74082e+07 3.7288e+07 3.7288e+07 3.74082e+07 3.1676e+07 3.15752e+07 3.15752e+07 3.1676e+07
          3.15752e+07 3.23947e+07 3.23947e+07 3.15752e+07 3.15752e+07 3.23947e+07 3.23947e+07 3.15752e+07 3.1676e+07 3.15752e+07 3.15752e+07 3.1676e+07
          2.58752e+07 2.57514e+07 2.57514e+07 2.58752e+07 2.57514e+07 2.58052e+07 2.58052e+07 2.57514e+07 2.57514e+07 2.58052e+07 2.58052e+07 2.57514e+07
          2.58752e+07 2.57514e+07 2.57514e+07 2.58752e+07
        </DataArray>
        <DataArray type="Float32" Name="principal stress 3" NumberOfComponents="1" format="ascii">
          4.26754e+07 4.28229e+07 4.28229e+07 4.26754e+07 4.28229e+07 4.31181e+07 4.31181e+07 4.28229e+07 4.28229e+07 4.31181e+07 4.31181e+07 4.28229e+07
          4.26754e+07 4.28229e+07 4.28229e+07 4.26754e+07 3.68946e+07 3.69894e+07 3.69894e+07 3.68946e+07 3.69894e+07 3.78161e+07 3.78161e+07 3.69894e+07
          3.69894e+07 3.78161e+07 3.78161e+07 3.69894e+07 3.68946e+07 3.69894e+07 3.69894e+07 3.68946e+07 3.12172e+07 3.12752e+07 3.12752e+07 3.12172e+07
          3.12752e+07 3.20451e+07 3.20451e+07 3.12752e+07 3.12752e+07 3.20451e+07 3.20451e+07 3.12752e+07 3.12172e+07 3.12752e+07 3.12752e+07 3.12172e+07
          2.56617e+07 2.56932e+07 2.56932e+07 2.56617e+07 2.56932e+07 2.58052e+07 2.58052e+07 2.56932e+07 2.56932e+07 2.58052e+07 2.58052e+07 2.56932e+07
          2.56617e+07 2.56932e+07 2.56932e+07 2.56617e+07
        </DataArray>
        <DataArray type="Float32" Name="total stresses X" NumberOfComponents="3" format="ascii">
          4.30393e+07 32367.8 16035.9 4.29529e+07 33867.6 21224.4 4.29529e+07 -33867.6 -21224.4 4.30393e+07 -32367.8 -16035.9
          4.32124e+07 33867.6 36499.6 4.31181e+07 35367.4 93043.3 4.31181e+07 -35367.4 -93043.3 4.32124e+07 -33867.6 -36499.6
          4.32124e+07 -33867.6 36499.6 4.31181e+07 -35367.4 93043.3 4.31181e+07 35367.4 -93043.3 4.32124e+07 33867.6 -36499.6
          4.30393e+07 -32367.8 16035.9 4.29529e+07 -33867.6 21224.4 4.29529e+07 33867.6 -21224.4 4.30393e+07 32367.8 -16035.9
          3.74082e+07 53279.6 15945.6 3.7288e+07 106177 21728.3 3.7288e+07 -106177 -21728.3 3.74082e+07 -53279.6 -15945.6
          3.7775e+07 106177 88680.7 3.8108e+07 159075 146568 3.8108e+07 -159075 -146568 3.7775e+07 -106177 -88680.7
          3.7775e+07 -106177 88680.7 3.8108e+07 -159075 146568 3.8108e+07 159075 -146568 3.7775e+07 106177 -88680.7
          3.74082e+07 -53279.6 15945.6 3.7288e+07 -106177 21728.3 3.7288e+07 106177 -21728.3 3.74082e+07 53279.6 -15945.6
          3.1676e+07 49382.4 -48867.3 3.15752e+07 103540 -51668.6 3.15752e+07 -103540 51668.6 3.1676e+07 -49382.4 48867.3
          3.20298e+07 103540 -131632 3.23947e+07 157698 -183706 3.23947e+07 -157698 183706 3.20298e+07 -103540 131632
          3.20298e+07 -103540 -131632 3.23947e+07 -157698 -183706 3.23947e+07 157698 183706 3.20298e+07 103540 131632
          3.1676e+07 -49382.4 -48867.3 3.15752e+07 -103540 -51668.6 3.15752e+07 103540 51668.6 3.1676e+07 49382.4 48867.3
          2.58752e+07 24851.4 -53976.3 2.57514e+07 28773.9 -59398 2.57514e+07 -28773.9 59398 2.58752e+07 -24851.4 53976.3
          2.59776e+07 28773.9 -102257 2.58052e+07 32696.3 -149839 2.58052e+07 -32696.3 149839 2.59776e+07 -28773.9 102257
          2.59776e+07 -28773.9 -102257 2.58052e+07 -32696.3 -149839 2.58052e+07 32696.3 149839 2.59776e+07 28773.9 102257
          2.58752e+07 -24851.4 -53976.3 2.57514e+07 -28773.9 -59398 2.57514e+07 28773.9 59398 2.58752e+07 24851.4 53976.3
        </DataArray>
        <DataArray type="Float32" Name="total stresses Y" NumberOfComponents="3" format="ascii">
          32367.8 4.30393e+07 16035.9 33867.6 4.32124e+07 36499.6 -33867.6 4.32124e+07 36499.6 -32367.8 4.30393e+07 16035.9
          33867.6 4.29529e+07 21224.4 35367.4 4.31181e+07 93043.3 -35367.4 4.31181e+07 93043.3 -33867.6 4.29529e+07 21224.4
          -33867.6 4.29529e+07 -21224.4 -35367.4 4.31181e+07 -93043.3 35367.4 4.31181e+07 -93043.3 33867.6 4.29529e+07 -21224.4
          -32367.8 4.30393e+07 -16035.9 -33867.6 4.32124e+07 -36499.6 33867.6 4.32124e+07 -36499.6 32367.8 4.30393e+07 -16035.9
          53279.6 3.74082e+07 15945.6 106177 3.7775e+07 88680.7 -106177 3.7775e+07 88680.7 -53279.6 3.74082e+07 15945.6
          106177 3.7288e+07 21728.3 159075 3.8108e+07 146568 -159075 3.8108e+07 146568 -106177 3.7288e+07 21728.3
          -106177 3.7288e+07 -21728.3 -159075 3.8108e+07 -146568 159075 3.8108e+07 -146568 106177 3.7288e+07 -21728.3
          -53279.6 3.74082e+07 -15945.6 -106177 3.7775e+07 -88680.7 106177 3.7775e+07 -88680.7 53279.6 3.74082e+07 -15945.6
          49382.4 3.1676e+07 -48867.3 103540 3.20298e+07 -131632 -103540 3.20298e+07 -131632 -49382.4 3.1676e+07 -48867.3
          103540 3.15752e+07 -51668.6 157698 3.23947e+07 -183706 -157698 3.23947e+07 -183706 -103540 3.15752e+07 -51668.6
          -103540 3.15752e+07 51668.6 -157698 3.23947e+07 183706 157698 3.23947e+07 183706 103540 3.15752e+07 51668.6
          -49382.4 3.1676e+07 48867.3 -103540 3.20298e+07 131632 103540 3.20298e+07 131632 49382.4 3.1676e+07 48867.3
          24851.4 2.58752e+07 -53976.3 28773.9 2.59776e+07 -102257 -28773.9 2.59776e+07 -102257 -24851.4 2.58752e+07 -53976.3
          28773.9 2.57514e+07 -59398 32696.3 2.58052e+07 -149839 -32696.3 2.58052e+07 -149839 -28773.9 2.57514e+07 -59398
          -28773.9 2.57514e+07 59398 -32696.3 2.58052e+07 149839 32696.3 2.58052e+07 149839 28773.9 2.57514e+07 59398
          -24851.4 2.58752e+07 53976.3 -28773.9 2.59776e+07 102257 28773.9 2.59776e+07 102257 24851.4 2.58752e+07 53976.3
        </DataArray>
        <DataArray type="Float32" Name="total stresses Z" NumberOfComponents="3" format="ascii">
          16035.9 16035.9 4.26754e+07 21224.4 36499.6 4.28229e+07 -21224.4 36499.6 4.28229e+07 -16035.9 16035.9 4.26754e+07
          36499.6 21224.4 4.28229e+07 93043.3 93043.3 4.32436e+07 -93043.3 93043.3 4.32436e+07 -36499.6 21224.4 4.28229e+07
          36499.6 -21224.4 4.28229e+07 93043.3 -93043.3 4.32436e+07 -93043.3 -93043.3 4.32436e+07 -36499.6 -21224.4 4.28229e+07
          16035.9 -16035.9 4.26754e+07 21224.4 -36499.6 4.28229e+07 -21224.4 -36499.6 4.28229e+07 -16035.9 -16035.9 4.26754e+07
          15945.6 15945.6 3.68946e+07 21728.3 88680.7 3.69894e+07 -21728.3 88680.7 3.69894e+07 -15945.6 15945.6 3.68946e+07
          88680.7 21728.3 3.69894e+07 146568 146568 3.78161e+07 -146568 146568 3.78161e+07 -88680.7 21728.3 3.69894e+07
          88680.7 -21728.3 3.69894e+07 146568 -146568 3.78161e+07 -146568 -146568 3.78161e+07 -88680.7 -21728.3 3.69894e+07
          15945.6 -15945.6 3.68946e+07 21728.3 -88680.7 3.69894e+07 -21728.3 -88680.7 3.69894e+07 -15945.6 -15945.6 3.68946e+07
          -48867.3 -48867.3 3.12172e+07 -51668.6 -131632 3.12752e+07 51668.6 -131632 3.12752e+07 48867.3 -48867.3 3.12172e+07
          -131632 -51668.6 3.12752e+07 -183706 -183706 3.20451e+07 183706 -183706 3.20451e+07 131632 -51668.6 3.12752e+07
          -131632 51668.6 3.12752e+07 -183706 183706 3.20451e+07 183706 183706 3.20451e+07 131632 51668.6 3.12752e+07
          -48867.3 48867.3 3.12172e+07 -51668.6 131632 3.12752e+07 51668.6 131632 3.12752e+07 48867.3 48867.3 3.12172e+07
          -53976.3 -53976.3 2.56617e+07 -59398 -102257 2.56932e+07 59398 -102257 2.56932e+07 53976.3 -53976.3 2.56617e+07
          -102257 -59398 2.56932e+07 -149839 -149839 2.58892e+07 149839 -149839 2.58892e+07 102257 -59398 2.56932e+07
          -102257 59398 2.56932e+07 -149839 149839 2.58892e+07 149839 149839 2.58892e+07 102257 59398 2.56932e+07
          -53976.3 53976.3 2.56617e+07 -59398 102257 2.56932e+07 59398 102257 2.56932e+07 53976.3 53976.3 2.56617e+07
        </DataArray>
        <DataArray type="Float32" Name="initial stresses X" NumberOfComponents="3" format="ascii">
          4.28905e+07 0 0 4.28905e+07 0 0 4.28905e+07 0 0 4.28905e+07 0 0
          4.28905e+07 0 0 4.28905e+07 0 0 4.28905e+07 0 0 4.28905e+07 0 0
          4.28905e+07 0 0 4.28905e+07 0 0 4.28905e+07 0 0 4.28905e+07 0 0
          4.28905e+07 0 0 4.28905e+07 0 0 4.28905e+07 0 0 4.28905e+07 0 0
          3.71718e+07 0 0 3.71718e+07 0 0 3.71718e+07 0 0 3.71718e+07 0 0
          3.71718e+07 0 0 3.71718e+07 0 0 3.71718e+07 0 0 3.71718e+07 0 0
          3.71718e+07 0 0 3.71718e+07 0 0 3.71718e+07 0 0 3.71718e+07 0 0
          3.71718e+07 0 0 3.71718e+07 0 0 3.71718e+07 0 0 3.71718e+07 0 0
          3.14531e+07 0 0 3.14531e+07 0 0 3.14531e+07 0 0 3.14531e+07 0 0
          3.14531e+07 0 0 3.14531e+07 0 0 3.14531e+07 0 0 3.14531e+07 0 0
          3.14531e+07 0 0 3.14531e+07 0 0 3.14531e+07 0 0 3.14531e+07 0 0
          3.14531e+07 0 0 3.14531e+07 0 0 3.14531e+07 0 0 3.14531e+07 0 0
          2.57343e+07 0 0 2.57343e+07 0 0 2.57343e+07 0 0 2.57343e+07 0 0
          2.57343e+07 0 0 2.57343e+07 0 0 2.57343e+07 0 0 2.57343e+07 0 0
          2.57343e+07 0 0 2.57343e+07 0 0 2.57343e+07 0 0 2.57343e+07 0 0
          2.57343e+07 0 0 2.57343e+07 0 0 2.57343e+07 0 0 2.57343e+07 0 0
        </DataArray>
        <DataArray type="Float32" Name="initial stresses Y" NumberOfComponents="3" format="ascii">
          0 4.28905e+07 0 0 4.28905e+07 0 0 4.28905e+07 0 0 4.28905e+07 0
          0 4.28905e+07 0 0 4.28905e+07 0 0 4.28905e+07 0 0 4.28905e+07 0
          0 4.28905e+07 0 0 4.28905e+07 0 0 4.28905e+07 0 0 4.28905e+07 0
          0 4.28905e+07 0 0 4.28905e+07 0 0 4.28905e+07 0 0 4.28905e+07 0
          0 3.71718e+07 0 0 3.71718e+07 0 0 3.71718e+07 0 0 3.71718e+07 0
          0 3.71718e+07 0 0 3.71718e+07 0 0 3.71718e+07 0 0 3.71718e+07 0
          0 3.71718e+07 0 0 3.71718e+07 0 0 3.71718e+07 0 0 3.71718e+07 0
          0 3.71718e+07 0 0 3.71718e+07 0 0 3.71718e+07 0 0 3.71718e+07 0
          0 3.14531e+07 0 0 3.14531e+07 0 0 3.14531e+07 0 0 3.14531e+07 0
          0 3.14531e+07 0 0 3.14531e+07 0 0 3.14531e+07 0 0 3.14531e+07 0
          0 3.14531e+07 0 0 3.14531e+07 0 0 3.14531e+07 0 0 3.14531e+07 0
          0 3.14531e+07 0 0 3.14531e+07 0 0 3.14531e+07 0 0 3.14531e+07 0
          0 2.57343e+07 0 0 2.57343e+07 0 0 2.57343e+07 0 0 2.57343e+07 0
          0 2.57343e+07 0 0 2.57343e+07 0 0 2.57343e+07 0 0 2.57343e+07 0
          0 2.57343e+07 0 0 2.57343e+07 0 0 2.57343e+07 0 0 2.57343e+07 0
          0 2.57343e+07 0 0 2.57343e+07 0 0 2.57343e+07 0 0 2.57343e+07 0
        </DataArray>
        <DataArray type="Float32" Name="initial stresses Z" NumberOfComponents="3" format="ascii">
          0 0 4.28905e+07 0 0 4.28905e+07 0 0 4.28905e+07 0 0 4.28905e+07
          0 0 4.28905e+07 0 0 4.28905e+07 0 0 4.28905e+07 0 0 4.28905e+07
          0 0 4.28905e+07 0 0 4.28905e+07 0 0 4.28905e+07 0 0 4.28905e+07
          0 0 4.28905e+07 0 0 4.28905e+07 0 0 4.28905e+07 0 0 4.28905e+07
          0 0 3.71718e+07 0 0 3.71718e+07 0 0 3.71718e+07 0 0 3.71718e+07
          0 0 3.71718e+07 0 0 3.71718e+07 0 0 3.71718e+07 0 0 3.71718e+07
          0 0 3.71718e+07 0 0 3.71718e+07 0 0 3.71718e+07 0 0 3.71718e+07
          0 0 3.71718e+07 0 0 3.71718e+07 0 0 3.71718e+07 0 0 3.71718e+07
          0 0 3.14531e+07 0 0 3.14531e+07 0 0 3.14531e+07 0 0 3.14531e+07
          0 0 3.14531e+07 0 0 3.14531e+07 0 0 3.14531e+07 0 0 3.14531e+07
          0 0 3.14531e+07 0 0 3.14531e+07 0 0 3.14531e+07 0 0 3.14531e+07
          0 0 3.14531e+07 0 0 3.14531e+07 0 0 3.14531e+07 0 0 3.14531e+07
          0 0 2.57343e+07 0 0 2.57343e+07 0 0 2.57343e+07 0 0 2.57343e+07
          0 0 2.57343e+07 0 0 2.57343e+07 0 0 2.57343e+07 0 0 2.57343e+07
          0 0 2.57343e+07 0 0 2.57343e+07 0 0 2.57343e+07 0 0 2.57343e+07
          0 0 2.57343e+07 0 0 2.57343e+07 0 0 2.57343e+07 0 0 2.57343e+07
        </DataArray>
        <DataArray type="Float32" Name="delta pEff" NumberOfComponents="1" format="ascii">
          78304.7 210886 210886 78304.7 210886 512906 512906 210886 210886 512906 512906 210886
          78304.7 210886 210886 78304.7 133030 328052 328052 133030 328052 1.7328e+06 1.7328e+06 328052
          328052 1.7328e+06 1.7328e+06 328052 133030 328052 328052 133030 128366 318111 318111 128366
          318111 1.71984e+06 1.71984e+06 318111 318111 1.71984e+06 1.71984e+06 318111 128366 318111 318111 128366
          43466.4 129751 129751 43466.4 129751 326633 326633 129751 129751 326633 326633 129751
          43466.4 129751 129751 43466.4
        </DataArray>
        <DataArray type="Float32" Name="effectivePressure" NumberOfComponents="1" format="ascii">
          1.96916e+07 1.98241e+07 1.98241e+07 1.96916e+07 1.98241e+07 2.01262e+07 2.01262e+07 1.98241e+07 1.98241e+07 2.01262e+07 2.01262e+07 1.98241e+07
          1.96916e+07 1.98241e+07 1.98241e+07 1.96916e+07 1.71476e+07 1.73426e+07 1.73426e+07 1.71476e+07 1.73426e+07 1.87474e+07 1.87474e+07 1.73426e+07
          1.73426e+07 1.87474e+07 1.87474e+07 1.73426e+07 1.71476e+07 1.73426e+07 1.73426e+07 1.71476e+07 1.45374e+07 1.47271e+07 1.47271e+07 1.45374e+07
          1.47271e+07 1.61289e+07 1.61289e+07 1.47271e+07 1.47271e+07 1.61289e+07 1.61289e+07 1.47271e+07 1.45374e+07 1.47271e+07 1.47271e+07 1.45374e+07
          1.18408e+07 1.19271e+07 1.19271e+07 1.18408e+07 1.19271e+07 1.2124e+07 1.2124e+07 1.19271e+07 1.19271e+07 1.2124e+07 1.2124e+07 1.19271e+07
          1.18408e+07 1.19271e+07 1.19271e+07 1.18408e+07
        </DataArray>
        <DataArray type="Float32" Name="Pcr_tensile" NumberOfComponents="1" format="ascii">
          -2.29838e+07 -2.29988e+07 -2.29988e+07 -2.29838e+07 -2.29988e+07 -2.29919e+07 -2.29919e+07 -2.29988e+07 -2.29988e+07 -2.29919e+07 -2.29919e+07 -2.29988e+07
          -2.29838e+07 -2.29988e+07 -2.29988e+07 -2.29838e+07 -1.9747e+07 -1.96467e+07 -1.96467e+07 -1.9747e+07 -1.96467e+07 -1.90688e+07 -1.90688e+07 -1.96467e+07
          -1.96467e+07 -1.90688e+07 -1.90688e+07 -1.96467e+07 -1.9747e+07 -1.96467e+07 -1.96467e+07 -1.9747e+07 -1.66798e+07 -1.65481e+07 -1.65481e+07 -1.66798e+07
          -1.65481e+07 -1.59163e+07 -1.59163e+07 -1.65481e+07 -1.65481e+07 -1.59163e+07 -1.59163e+07 -1.65481e+07 -1.66798e+07 -1.65481e+07 -1.65481e+07 -1.66798e+07
          -1.38209e+07 -1.37661e+07 -1.37661e+07 -1.38209e+07 -1.37661e+07 -1.36813e+07 -1.36813e+07 -1.37661e+07 -1.37661e+07 -1.36813e+07 -1.36813e+07 -1.37661e+07
          -1.38209e+07 -1.37661e+07 -1.37661e+07 -1.38209e+07
        </DataArray>
        <DataArray type="Float32" Name="Pcr_shear" NumberOfComponents="1" format="ascii">
          -2.28019e+07 -2.28041e+07 -2.28041e+07 -2.28019e+07 -2.28041e+07 -2.29291e+07 -2.29291e+07 -2.28041e+07 -2.28041e+07 -2.29291e+07 -2.29291e+07 -2.28041e+07
          -2.28019e+07 -2.28041e+07 -2.28041e+07 -2.28019e+07 -1.94902e+07 -1.92539e+07 -1.92539e+07 -1.94902e+07 -1.92539e+07 -1.89228e+07 -1.89228e+07 -1.92539e+07
          -1.92539e+07 -1.89228e+07 -1.89228e+07 -1.92539e+07 -1.94902e+07 -1.92539e+07 -1.92539e+07 -1.94902e+07 -1.64503e+07 -1.61708e+07 -1.61708e+07 -1.64503e+07
          -1.61708e+07 -1.57415e+07 -1.57415e+07 -1.61708e+07 -1.61708e+07 -1.57415e+07 -1.57415e+07 -1.61708e+07 -1.64503e+07 -1.61708e+07 -1.61708e+07 -1.64503e+07
          -1.37141e+07 -1.36239e+07 -1.36239e+07 -1.37141e+07 -1.36239e+07 -1.36393e+07 -1.36393e+07 -1.36239e+07 -1.36239e+07 -1.36393e+07 -1.36393e+07 -1.36239e+07
          -1.37141e+07 -1.36239e+07 -1.36239e+07 -1.37141e+07
        </DataArray>
        <DataArray type="Float32" Name="effective Kxx" NumberOfComponents="1" format="ascii">
          1.00136e-14 1.00281e-14 1.00281e-14 1.00136e-14 1.00281e-14 1.00651e-14 1.00651e-14 1.00281e-14 1.00281e-14 1.00651e-14 1.00651e-14 1.00281e-14
          1.00136e-14 1.00281e-14 1.00281e-14 1.00136e-14 1.00181e-14 1.00398e-14 1.00398e-14 1.00181e-14 1.00398e-14 1.0241e-14 1.0241e-14 1.00398e-14
          1.00398e-14 1.0241e-14 1.0241e-14 1.00398e-14 1.00181e-14 1.00398e-14 1.00398e-14 1.00181e-14 1.00156e-14 1.00386e-14 1.00386e-14 1.00156e-14
          1.00386e-14 1.02413e-14 1.02413e-14 1.00386e-14 1.00386e-14 1.02413e-14 1.02413e-14 1.00386e-14 1.00156e-14 1.00386e-14 1.00386e-14 1.00156e-14
          9.99301e-15 1.00151e-14 1.00151e-14 9.99301e-15 1.00151e-14 1.00609e-14 1.00609e-14 1.00151e-14 1.00151e-14 1.00609e-14 1.00609e-14 1.00151e-14
          9.99301e-15 1.00151e-14 1.00151e-14 9.99301e-15
        </DataArray>
        <DataArray type="Float32" Name="effective Porosity" NumberOfComponents="1" format="ascii">
          0.200012 0.200025 0.200025 0.200012 0.200025 0.200058 0.200058 0.200025 0.200025 0.200058 0.200058 0.200025
          0.200012 0.200025 0.200025 0.200012 0.200016 0.200036 0.200036 0.200016 0.200036 0.200214 0.200214 0.200036
          0.200036 0.200214 0.200214 0.200036 0.200016 0.200036 0.200036 0.200016 0.200014 0.200035 0.200035 0.200014
          0.200035 0.200215 0.200215 0.200035 0.200035 0.200215 0.200215 0.200035 0.200014 0.200035 0.200035 0.200014
          0.199994 0.200014 0.200014 0.199994 0.200014 0.200055 0.200055 0.200014 0.200014 0.200055 0.200055 0.200014
          0.199994 0.200014 0.200014 0.199994
        </DataArray>
      </CellData>
      <Points>
        <DataArray type="Float32" Name="Coordinates" NumberOfComponents="3" format="ascii">
          0 0 0 250 0 0 0 250 0 250 250 0
          0 0 250 250 0 250 0 250 250 250 250 250
          500 0 0 500 250 0 500 0 250 500 250 250
          750 0 0 750 250 0 750 0 250 750 250 250
          1000 0 0 1000 250 0 1000 0 250 1000 250 250
          0 500 0 250 500 0 0 500 250 250 500 250
          500 500 0 500 500 250 750 500 0 750 500 250
          1000 500 0 1000 500 250 0 750 0 250 750 0
          0 750 250 250 750 250 500 750 0 500 750 250
          750 750 0 750 750 250 1000 750 0 1000 750 250
          0 1000 0 250 1000 0 0 1000 250 250 1000 250
          500 1000 0 500 1000 250 750 1000 0 750 1000 250
          1000 1000 0 1000 1000 250 0 0 500 250 0 500
          0 250 500 250 250 500 500 0 500 500 250 500
          750 0 500 750 250 500 1000 0 500 1000 250 500
          0 500 500 250 500 500 500 500 500 750 500 500
          1000 500 500 0 750 500 250 750 500 500 750 500
          750 750 500 1000 750 500 0 1000 500 250 1000 500
          500 1000 500 750 1000 500 1000 1000 500 0 0 750
          250 0 750 0 250 750 250 250 750 500 0 750
          500 250 750 750 0 750 750 250 750 1000 0 750
          1000 250 750 0 500 750 250 500 750 500 500 750
          750 500 750 1000 500 750 0 750 750 250 750 750
          500 750 750 750 750 750 1000 750 750 0 1000 750
          250 1000 750 500 1000 750 750 1000 750 1000 1000 750
          0 0 1000 250 0 1000 0 250 1000 250 250 1000
          500 0 1000 500 250 1000 750 0 1000 750 250 1000
          1000 0 1000 1000 250 1000 0 500 1000 250 500 1000
          500 500 1000 750 500 1000 1000 500 1000 0 750 1000
          250 750 1000 500 750 1000 750 750 1000 1000 750 1000
          0 1000 1000 250 1000 1000 500 1000 1000 750 1000 1000
          1000 1000 1000
        </DataArray>
      </Points>
      <Cells>
        <DataArray type="Int32" Name="connectivity" NumberOfComponents="1" format="ascii">
          0 1 3 2 4 5 7 6 1 8 9 3
          5 10 11 7 8 12 13 9 10 14 15 11
          12 16 17 13 14 18 19 15 2 3 21 20
          6 7 23 22 3 9 24 21 7 11 25 23
          9 13 26 24 11 15 27 25 13 17 28 26
          15 19 29 27 20 21 31 30 22 23 33 32
          21 24 34 31 23 25 35 33 24 26 36 34
          25 27 37 35 26 28 38 36 27 29 39 37
          30 31 41 40 32 33 43 42 31 34 44 41
          33 35 45 43 34 36 46 44 35 37 47 45
          36 38 48 46 37 39 49 47 4 5 7 6
          50 51 53 52 5 10 11 7 51 54 55 53
          10 14 15 11 54 56 57 55 14 18 19 15
          56 58 59 57 6 7 23 22 52 53 61 60
          7 11 25 23 53 55 62 61 11 15 27 25
          55 57 63 62 15 19 29 27 57 59 64 63
          22 23 33 32 60 61 66 65 23 25 35 33
          61 62 67 66 25 27 37 35 62 63 68 67
          27 29 39 37 63 64 69 68 32 33 43 42
          65 66 71 70 33 35 45 43 66 67 72 71
          35 37 47 45 67 68 73 72 37 39 49 47
          68 69 74 73 50 51 53 52 75 76 78 77
          51 54 55 53 76 79 80 78 54 56 57 55
          79 81 82 80 56 58 59 57 81 83 84 82
          52 53 61 60 77 78 86 85 53 55 62 61
          78 80 87 86 55 57 63 62 80 82 88 87
          57 59 64 63 82 84 89 88 60 61 66 65
          85 86 91 90 61 62 67 66 86 87 92 91
          62 63 68 67 87 88 93 92 63 64 69 68
          88 89 94 93 65 66 71 70 90 91 96 95
          66 67 72 71 91 92 97 96 67 68 73 72
          92 93 98 97 68 69 74 73 93 94 99 98
          75 76 78 77 100 101 103 102 76 79 80 78
          101 104 105 103 79 81 82 80 104 106 107 105
          81 83 84 82 106 108 109 107 77 78 86 85
          102 103 111 110 78 80 87 86 103 105 112 111
          80 82 88 87 105 107 113 112 82 84 89 88
          107 109 114 113 85 86 91 90 110 111 116 115
          86 87 92 91 111 112 117 116 87 88 93 92
          112 113 118 117 88 89 94 93 113 114 119 118
          90 91 96 95 115 116 121 120 91 92 97 96
          116 117 122 121 92 93 98 97 117 118 123 122
          93 94 99 98 118 119 124 123
        </DataArray>
        <DataArray type="Int32" Name="offsets" NumberOfComponents="1" format="ascii">
          8 16 24 32 40 48 56 64 72 80 88 96
          104 112 120 128 136 144 152 160 168 176 184 192
          200 208 216 224 232 240 248 256 264 272 280 288
          296 304 312 320 328 336 344 352 360 368 376 384
          392 400 408 416 424 432 440 448 456 464 472 480
          488 496 504 512
        </DataArray>
        <DataArray type="UInt8" Name="types" NumberOfComponents="1" format="ascii">
          12 12 12 12 12 12 12 12 12 12 12 12
          12 12 12 12 12 12 12 12 12 12 12 12
          12 12 12 12 12 12 12 12 12 12 12 12
          12 12 12 12 12 12 12 12 12 12 12 12
          12 12 12 12 12 12 12 12 12 12 12 12
          12 12 12 12
        </DataArray>
      </Cells>
    </Piece>
  </UnstructuredGrid>
</VTKFile>
