<?xml version="1.0"?>
<VTKFile type="UnstructuredGrid" version="0.1" byte_order="LittleEndian">
  <UnstructuredGrid>
    <Piece NumberOfCells="256" NumberOfPoints="289">
      <CellData Scalars="p" Vectors="dv_x/dx_">
        <DataArray type="Float32" Name="p" NumberOfComponents="1" format="ascii">
          100004 100003 100003 100003 100003 100003 100002 100002 100002 100002 100001 100001
          100001 100001 100000 100000 100004 100003 100003 100003 100003 100003 100002 100002
          100002 100002 100001 100001 100001 100001 100000 100000 100004 100003 100003 100003
          100003 100003 100002 100002 100002 100002 100001 100001 100001 100001 100000 100000
          100004 100003 100003 100003 100003 100003 100002 100002 100002 100002 100001 100001
          100001 100001 100000 100000 100004 100003 100003 100003 100003 100003 100002 100002
          100002 100002 100001 100001 100001 100001 100000 100000 100004 100003 100003 100003
          100003 100003 100002 100002 100002 100002 100001 100001 100001 100001 100000 100000
          100004 100003 100003 100003 100003 100003 100002 100002 100002 100002 100001 100001
          100001 100001 100000 100000 100004 100003 100003 100003 100003 100003 100002 100002
          100002 100002 100001 100001 100001 100001 100000 100000 100004 100003 100003 100003
          100003 100003 100002 100002 100002 100002 100001 100001 100001 100001 100000 100000
          100004 100003 100003 100003 100003 100003 100002 100002 100002 100002 100001 100001
          100001 100001 100000 100000 100004 100003 100003 100003 100003 100003 100002 100002
          100002 100002 100001 100001 100001 100001 100000 100000 100004 100003 100003 100003
          100003 100003 100002 100002 100002 100002 100001 100001 100001 100001 100000 100000
          100004 100003 100003 100003 100003 100003 100002 100002 100002 100002 100001 100001
          100001 100001 100000 100000 100004 100003 100003 100003 100003 100003 100002 100002
          100002 100002 100001 100001 100001 100001 100000 100000 100004 100003 100003 100003
          100003 100003 100002 100002 100002 100002 100001 100001 100001 100001 100000 100000
          100004 100003 100003 100003 100003 100003 100002 100002 100002 100002 100001 100001
          100001 100001 100000 100000
        </DataArray>
        <DataArray type="Float32" Name="rhoMolar" NumberOfComponents="1" format="ascii">
          42.4781 42.478 42.4779 42.4778 42.4777 42.4776 42.4775 42.4774 42.4773 42.4772 42.4771 42.477
          42.4769 42.4768 42.4767 42.4766 42.4781 42.478 42.4779 42.4778 42.4777 42.4776 42.4775 42.4774
          42.4773 42.4772 42.4771 42.477 42.4769 42.4768 42.4767 42.4766 42.4781 42.478 42.4779 42.4778
          42.4777 42.4776 42.4775 42.4774 42.4773 42.4772 42.4771 42.477 42.4769 42.4768 42.4767 42.4766
          42.4781 42.478 42.4779 42.4778 42.4777 42.4776 42.4775 42.4774 42.4773 42.4772 42.4771 42.477
          42.4769 42.4768 42.4767 42.4766 42.4781 42.478 42.4779 42.4778 42.4777 42.4776 42.4775 42.4774
          42.4773 42.4772 42.4771 42.477 42.4769 42.4768 42.4767 42.4766 42.4781 42.478 42.4779 42.4778
          42.4777 42.4776 42.4775 42.4774 42.4773 42.4772 42.4771 42.477 42.4769 42.4768 42.4767 42.4766
          42.4781 42.478 42.4779 42.4778 42.4777 42.4776 42.4775 42.4774 42.4773 42.4772 42.4771 42.477
          42.4769 42.4768 42.4767 42.4766 42.4781 42.478 42.4779 42.4778 42.4777 42.4776 42.4775 42.4774
          42.4773 42.4772 42.4771 42.477 42.4769 42.4768 42.4767 42.4766 42.4781 42.478 42.4779 42.4778
          42.4777 42.4776 42.4775 42.4774 42.4773 42.4772 42.4771 42.477 42.4769 42.4768 42.4767 42.4766
          42.4781 42.478 42.4779 42.4778 42.4777 42.4776 42.4775 42.4774 42.4773 42.4772 42.4771 42.477
          42.4769 42.4768 42.4767 42.4766 42.4781 42.478 42.4779 42.4778 42.4777 42.4776 42.4775 42.4774
          42.4773 42.4772 42.4771 42.477 42.4769 42.4768 42.4767 42.4766 42.4781 42.478 42.4779 42.4778
          42.4777 42.4776 42.4775 42.4774 42.4773 42.4772 42.4771 42.477 42.4769 42.4768 42.4767 42.4766
          42.4781 42.478 42.4779 42.4778 42.4777 42.4776 42.4775 42.4774 42.4773 42.4772 42.4771 42.477
          42.4769 42.4768 42.4767 42.4766 42.4781 42.478 42.4779 42.4778 42.4777 42.4776 42.4775 42.4774
          42.4773 42.4772 42.4771 42.477 42.4769 42.4768 42.4767 42.4766 42.4781 42.478 42.4779 42.4778
          42.4777 42.4776 42.4775 42.4774 42.4773 42.4772 42.4771 42.477 42.4769 42.4768 42.4767 42.4766
          42.4781 42.478 42.4779 42.4778 42.4777 42.4776 42.4775 42.4774 42.4773 42.4772 42.4771 42.477
          42.4769 42.4768 42.4767 42.4766
        </DataArray>
        <DataArray type="Float32" Name="rho" NumberOfComponents="1" format="ascii">
          1.23016 1.23016 1.23016 1.23016 1.23015 1.23015 1.23015 1.23015 1.23014 1.23014 1.23014 1.23013
          1.23013 1.23013 1.23012 1.23012 1.23016 1.23016 1.23016 1.23016 1.23015 1.23015 1.23015 1.23015
          1.23014 1.23014 1.23014 1.23013 1.23013 1.23013 1.23012 1.23012 1.23016 1.23016 1.23016 1.23016
          1.23015 1.23015 1.23015 1.23015 1.23014 1.23014 1.23014 1.23013 1.23013 1.23013 1.23012 1.23012
          1.23016 1.23016 1.23016 1.23016 1.23015 1.23015 1.23015 1.23015 1.23014 1.23014 1.23014 1.23013
          1.23013 1.23013 1.23012 1.23012 1.23016 1.23016 1.23016 1.23016 1.23015 1.23015 1.23015 1.23015
          1.23014 1.23014 1.23014 1.23013 1.23013 1.23013 1.23012 1.23012 1.23016 1.23016 1.23016 1.23016
          1.23015 1.23015 1.23015 1.23015 1.23014 1.23014 1.23014 1.23013 1.23013 1.23013 1.23012 1.23012
          1.23016 1.23016 1.23016 1.23016 1.23015 1.23015 1.23015 1.23015 1.23014 1.23014 1.23014 1.23013
          1.23013 1.23013 1.23012 1.23012 1.23016 1.23016 1.23016 1.23016 1.23015 1.23015 1.23015 1.23015
          1.23014 1.23014 1.23014 1.23013 1.23013 1.23013 1.23012 1.23012 1.23016 1.23016 1.23016 1.23016
          1.23015 1.23015 1.23015 1.23015 1.23014 1.23014 1.23014 1.23013 1.23013 1.23013 1.23012 1.23012
          1.23016 1.23016 1.23016 1.23016 1.23015 1.23015 1.23015 1.23015 1.23014 1.23014 1.23014 1.23013
          1.23013 1.23013 1.23012 1.23012 1.23016 1.23016 1.23016 1.23016 1.23015 1.23015 1.23015 1.23015
          1.23014 1.23014 1.23014 1.23013 1.23013 1.23013 1.23012 1.23012 1.23016 1.23016 1.23016 1.23016
          1.23015 1.23015 1.23015 1.23015 1.23014 1.23014 1.23014 1.23013 1.23013 1.23013 1.23012 1.23012
          1.23016 1.23016 1.23016 1.23016 1.23015 1.23015 1.23015 1.23015 1.23014 1.23014 1.23014 1.23013
          1.23013 1.23013 1.23012 1.23012 1.23016 1.23016 1.23016 1.23016 1.23015 1.23015 1.23015 1.23015
          1.23014 1.23014 1.23014 1.23013 1.23013 1.23013 1.23012 1.23012 1.23016 1.23016 1.23016 1.23016
          1.23015 1.23015 1.23015 1.23015 1.23014 1.23014 1.23014 1.23013 1.23013 1.23013 1.23012 1.23012
          1.23016 1.23016 1.23016 1.23016 1.23015 1.23015 1.23015 1.23015 1.23014 1.23014 1.23014 1.23013
          1.23013 1.23013 1.23012 1.23012
        </DataArray>
        <DataArray type="Float32" Name="v_x/v_x,max" NumberOfComponents="1" format="ascii">
          0.780723 0.491842 0.391432 0.35208 0.332055 0.320105 0.312612 0.308236 0.306264 0.306077 0.307047 0.308599
          0.310299 0.31188 0.313223 0.314102 0.922552 0.773685 0.659651 0.595682 0.560437 0.539256 0.526158 0.51867
          0.515427 0.515285 0.517131 0.519958 0.523012 0.525836 0.528222 0.529773 0.970895 0.891553 0.79749 0.726516
          0.68245 0.655152 0.638216 0.628523 0.624251 0.623905 0.626062 0.629463 0.63317 0.636614 0.639531 0.641426
          0.989159 0.95306 0.892419 0.827962 0.778958 0.746269 0.725507 0.71344 0.707895 0.707047 0.709199 0.712867
          0.716953 0.720792 0.724064 0.726193 0.996093 0.9825 0.953494 0.909939 0.86487 0.829262 0.804977 0.790302
          0.783137 0.781434 0.783251 0.786896 0.791116 0.795149 0.798618 0.800883 0.998783 0.994448 0.984653 0.965857
          0.938072 0.907941 0.882976 0.86627 0.857345 0.854411 0.855466 0.858676 0.862651 0.866543 0.869923 0.872133
          0.999748 0.998754 0.996508 0.99203 0.983793 0.971174 0.95619 0.942697 0.933624 0.929572 0.92944 0.931551
          0.934501 0.937452 0.940008 0.941665 1 1 1 1 1 1 1 1
          1 1 1 1 1 1 1 1 1 1 1 1
          1 1 1 1 1 1 1 1 1 1 1 1
          0.999748 0.998754 0.996508 0.99203 0.983793 0.971174 0.95619 0.942697 0.933624 0.929572 0.92944 0.931551
          0.934501 0.937452 0.940008 0.941665 0.998783 0.994448 0.984653 0.965857 0.938072 0.907941 0.882976 0.86627
          0.857345 0.854411 0.855466 0.858676 0.862651 0.866543 0.869923 0.872133 0.996093 0.9825 0.953494 0.909939
          0.86487 0.829262 0.804977 0.790302 0.783137 0.781434 0.783251 0.786896 0.791116 0.795149 0.798618 0.800883
          0.989159 0.95306 0.892419 0.827962 0.778958 0.746269 0.725507 0.71344 0.707895 0.707047 0.709199 0.712867
          0.716953 0.720792 0.724064 0.726193 0.970895 0.891553 0.79749 0.726516 0.68245 0.655152 0.638216 0.628523
          0.624251 0.623905 0.626062 0.629463 0.63317 0.636614 0.639531 0.641426 0.922552 0.773685 0.659651 0.595682
          0.560437 0.539256 0.526158 0.51867 0.515427 0.515285 0.517131 0.519958 0.523012 0.525836 0.528222 0.529773
          0.780723 0.491842 0.391432 0.35208 0.332055 0.320105 0.312612 0.308236 0.306264 0.306077 0.307047 0.308599
          0.310299 0.31188 0.313223 0.314102
        </DataArray>
        <DataArray type="Float32" Name="p_rel" NumberOfComponents="1" format="ascii">
          3.68375 3.47784 3.27242 3.05442 2.83033 2.60247 2.37173 2.1384 1.90228 1.66277 1.41906 1.17051
          0.917036 0.659103 0.397528 0.133009 3.68365 3.47813 3.27264 3.05454 2.83041 2.60252 2.37176 2.13842
          1.90229 1.66277 1.41906 1.17051 0.917035 0.659101 0.397526 0.133008 3.68343 3.47829 3.27288 3.05474
          2.83053 2.6026 2.37181 2.13845 1.90231 1.66278 1.41906 1.17051 0.91703 0.659096 0.397521 0.133005
          3.683 3.47839 3.27306 3.05497 2.83073 2.60274 2.3719 2.13851 1.90234 1.6628 1.41907 1.17051
          0.917024 0.659088 0.397513 0.133 3.68237 3.47842 3.27314 3.05517 2.83096 2.60293 2.37205 2.13861
          1.90241 1.66284 1.41909 1.17052 0.917024 0.659083 0.397506 0.132993 3.68162 3.47838 3.27313 3.05526
          2.83114 2.60316 2.37226 2.13878 1.90254 1.66293 1.41915 1.17055 0.917039 0.659087 0.397505 0.132984
          3.68084 3.47836 3.27305 3.05525 2.83122 2.60331 2.37247 2.13901 1.90275 1.66309 1.41926 1.17063
          0.917091 0.659119 0.397524 0.132973 3.68023 3.47837 3.27301 3.05522 2.8312 2.60335 2.37257 2.13917
          1.90294 1.6633 1.41945 1.17078 0.9172 0.659196 0.397577 0.132965 3.68023 3.47837 3.27301 3.05522
          2.8312 2.60335 2.37257 2.13917 1.90294 1.6633 1.41945 1.17078 0.9172 0.659196 0.397577 0.132965
          3.68084 3.47836 3.27305 3.05525 2.83122 2.60331 2.37247 2.13901 1.90275 1.66309 1.41926 1.17063
          0.917091 0.659119 0.397524 0.132973 3.68162 3.47838 3.27313 3.05526 2.83114 2.60316 2.37226 2.13878
          1.90254 1.66293 1.41915 1.17055 0.917039 0.659087 0.397505 0.132984 3.68237 3.47842 3.27314 3.05517
          2.83096 2.60293 2.37205 2.13861 1.90241 1.66284 1.41909 1.17052 0.917024 0.659083 0.397506 0.132993
          3.683 3.47839 3.27306 3.05497 2.83073 2.60274 2.3719 2.13851 1.90234 1.6628 1.41907 1.17051
          0.917024 0.659088 0.397513 0.133 3.68343 3.47829 3.27288 3.05474 2.83053 2.6026 2.37181 2.13845
          1.90231 1.66278 1.41906 1.17051 0.91703 0.659096 0.397521 0.133005 3.68365 3.47813 3.27264 3.05454
          2.83041 2.60252 2.37176 2.13842 1.90229 1.66277 1.41906 1.17051 0.917035 0.659101 0.397526 0.133008
          3.68375 3.47784 3.27242 3.05442 2.83033 2.60247 2.37173 2.1384 1.90228 1.66277 1.41906 1.17051
          0.917036 0.659103 0.397528 0.133009
        </DataArray>
        <DataArray type="Float32" Name="nu" NumberOfComponents="1" format="ascii">
          1.43723e-05 1.43723e-05 1.43724e-05 1.43724e-05 1.43724e-05 1.43725e-05 1.43725e-05 1.43725e-05 1.43726e-05 1.43726e-05 1.43726e-05 1.43727e-05
          1.43727e-05 1.43727e-05 1.43728e-05 1.43728e-05 1.43723e-05 1.43723e-05 1.43724e-05 1.43724e-05 1.43724e-05 1.43725e-05 1.43725e-05 1.43725e-05
          1.43726e-05 1.43726e-05 1.43726e-05 1.43727e-05 1.43727e-05 1.43727e-05 1.43728e-05 1.43728e-05 1.43723e-05 1.43723e-05 1.43724e-05 1.43724e-05
          1.43724e-05 1.43725e-05 1.43725e-05 1.43725e-05 1.43726e-05 1.43726e-05 1.43726e-05 1.43727e-05 1.43727e-05 1.43727e-05 1.43728e-05 1.43728e-05
          1.43723e-05 1.43723e-05 1.43724e-05 1.43724e-05 1.43724e-05 1.43725e-05 1.43725e-05 1.43725e-05 1.43726e-05 1.43726e-05 1.43726e-05 1.43727e-05
          1.43727e-05 1.43727e-05 1.43728e-05 1.43728e-05 1.43723e-05 1.43723e-05 1.43724e-05 1.43724e-05 1.43724e-05 1.43725e-05 1.43725e-05 1.43725e-05
          1.43726e-05 1.43726e-05 1.43726e-05 1.43727e-05 1.43727e-05 1.43727e-05 1.43728e-05 1.43728e-05 1.43723e-05 1.43723e-05 1.43724e-05 1.43724e-05
          1.43724e-05 1.43725e-05 1.43725e-05 1.43725e-05 1.43726e-05 1.43726e-05 1.43726e-05 1.43727e-05 1.43727e-05 1.43727e-05 1.43728e-05 1.43728e-05
          1.43723e-05 1.43723e-05 1.43724e-05 1.43724e-05 1.43724e-05 1.43725e-05 1.43725e-05 1.43725e-05 1.43726e-05 1.43726e-05 1.43726e-05 1.43727e-05
          1.43727e-05 1.43727e-05 1.43728e-05 1.43728e-05 1.43723e-05 1.43723e-05 1.43724e-05 1.43724e-05 1.43724e-05 1.43725e-05 1.43725e-05 1.43725e-05
          1.43726e-05 1.43726e-05 1.43726e-05 1.43727e-05 1.43727e-05 1.43727e-05 1.43728e-05 1.43728e-05 1.43723e-05 1.43723e-05 1.43724e-05 1.43724e-05
          1.43724e-05 1.43725e-05 1.43725e-05 1.43725e-05 1.43726e-05 1.43726e-05 1.43726e-05 1.43727e-05 1.43727e-05 1.43727e-05 1.43728e-05 1.43728e-05
          1.43723e-05 1.43723e-05 1.43724e-05 1.43724e-05 1.43724e-05 1.43725e-05 1.43725e-05 1.43725e-05 1.43726e-05 1.43726e-05 1.43726e-05 1.43727e-05
          1.43727e-05 1.43727e-05 1.43728e-05 1.43728e-05 1.43723e-05 1.43723e-05 1.43724e-05 1.43724e-05 1.43724e-05 1.43725e-05 1.43725e-05 1.43725e-05
          1.43726e-05 1.43726e-05 1.43726e-05 1.43727e-05 1.43727e-05 1.43727e-05 1.43728e-05 1.43728e-05 1.43723e-05 1.43723e-05 1.43724e-05 1.43724e-05
          1.43724e-05 1.43725e-05 1.43725e-05 1.43725e-05 1.43726e-05 1.43726e-05 1.43726e-05 1.43727e-05 1.43727e-05 1.43727e-05 1.43728e-05 1.43728e-05
          1.43723e-05 1.43723e-05 1.43724e-05 1.43724e-05 1.43724e-05 1.43725e-05 1.43725e-05 1.43725e-05 1.43726e-05 1.43726e-05 1.43726e-05 1.43727e-05
          1.43727e-05 1.43727e-05 1.43728e-05 1.43728e-05 1.43723e-05 1.43723e-05 1.43724e-05 1.43724e-05 1.43724e-05 1.43725e-05 1.43725e-05 1.43725e-05
          1.43726e-05 1.43726e-05 1.43726e-05 1.43727e-05 1.43727e-05 1.43727e-05 1.43728e-05 1.43728e-05 1.43723e-05 1.43723e-05 1.43724e-05 1.43724e-05
          1.43724e-05 1.43725e-05 1.43725e-05 1.43725e-05 1.43726e-05 1.43726e-05 1.43726e-05 1.43727e-05 1.43727e-05 1.43727e-05 1.43728e-05 1.43728e-05
          1.43723e-05 1.43723e-05 1.43724e-05 1.43724e-05 1.43724e-05 1.43725e-05 1.43725e-05 1.43725e-05 1.43726e-05 1.43726e-05 1.43726e-05 1.43727e-05
          1.43727e-05 1.43727e-05 1.43728e-05 1.43728e-05
        </DataArray>
        <DataArray type="Float32" Name="nu_t" NumberOfComponents="1" format="ascii">
          1.15029e-05 1.64491e-05 3.02812e-05 3.94388e-05 4.58782e-05 5.07904e-05 5.47464e-05 5.80817e-05 6.09754e-05 6.34889e-05 6.56149e-05 6.73278e-05
          6.86253e-05 6.95449e-05 7.01504e-05 7.05008e-05 3.33686e-05 0.000124162 0.000224128 0.000286352 0.000329582 0.00036167 0.000386674 0.000407076
          0.000424244 0.000438755 0.000450749 0.00046021 0.000467228 0.000472092 0.000475205 0.000476982 0.000163868 0.000164954 0.000345632 0.000508231
          0.000626066 0.000712239 0.000777644 0.000829301 0.000871291 0.000905611 0.00093309 0.000954097 0.000969174 0.000979232 0.000985358 0.000988763
          0.000456646 0.000244667 0.000374313 0.000633522 0.000861998 0.00103755 0.00117204 0.00127719 0.00136085 0.00142741 0.00147908 0.00151728
          0.00154368 0.00156051 0.00157016 0.00157534 0.000783744 0.000480779 0.000389678 0.000599996 0.000920973 0.00121345 0.00145105 0.00164019
          0.00179062 0.00190888 0.00199876 0.00206342 0.00210676 0.00213346 0.0021481 0.00215599 0.00100157 0.000795996 0.000578397 0.000536395
          0.000747945 0.00109615 0.00144647 0.00174573 0.00199186 0.00218808 0.00233657 0.00244256 0.00251364 0.00255813 0.00258361 0.00259891
          0.0010967 0.000984185 0.000854085 0.000709891 0.000644066 0.0007582 0.00103798 0.00139821 0.00175187 0.00204984 0.00227978 0.00245038
          0.0025735 0.0026596 0.00271746 0.00275814 0.00112368 0.00104362 0.000972146 0.000901394 0.00082306 0.00074925 0.000735839 0.000836082
          0.00105098 0.00134171 0.0016563 0.00195137 0.00220191 0.0023998 0.00254772 0.00265589 0.00112368 0.00104362 0.000972146 0.000901394
          0.00082306 0.00074925 0.000735839 0.000836082 0.00105098 0.00134171 0.0016563 0.00195137 0.00220191 0.0023998 0.00254772 0.00265589
          0.0010967 0.000984185 0.000854085 0.000709891 0.000644066 0.0007582 0.00103798 0.00139821 0.00175187 0.00204984 0.00227978 0.00245038
          0.0025735 0.0026596 0.00271746 0.00275814 0.00100157 0.000795996 0.000578397 0.000536395 0.000747945 0.00109615 0.00144647 0.00174573
          0.00199186 0.00218808 0.00233657 0.00244256 0.00251364 0.00255813 0.00258361 0.00259891 0.000783744 0.000480779 0.000389678 0.000599996
          0.000920973 0.00121345 0.00145105 0.00164019 0.00179062 0.00190888 0.00199876 0.00206342 0.00210676 0.00213346 0.0021481 0.00215599
          0.000456646 0.000244667 0.000374313 0.000633522 0.000861998 0.00103755 0.00117204 0.00127719 0.00136085 0.00142741 0.00147908 0.00151728
          0.00154368 0.00156051 0.00157016 0.00157534 0.000163868 0.000164954 0.000345632 0.000508231 0.000626066 0.000712239 0.000777644 0.000829301
          0.000871291 0.000905611 0.00093309 0.000954097 0.000969174 0.000979232 0.000985358 0.000988763 3.33686e-05 0.000124162 0.000224128 0.000286352
          0.000329582 0.00036167 0.000386674 0.000407076 0.000424244 0.000438755 0.000450749 0.00046021 0.000467228 0.000472092 0.000475205 0.000476982
          1.15029e-05 1.64491e-05 3.02812e-05 3.94388e-05 4.58782e-05 5.07904e-05 5.47464e-05 5.80817e-05 6.09754e-05 6.34889e-05 6.56149e-05 6.73278e-05
          6.86253e-05 6.95449e-05 7.01504e-05 7.05008e-05
        </DataArray>
        <DataArray type="Float32" Name="l_w" NumberOfComponents="1" format="ascii">
          0.00179461 0.00179461 0.00179461 0.00179461 0.00179461 0.00179461 0.00179461 0.00179461 0.00179461 0.00179461 0.00179461 0.00179461
          0.00179461 0.00179461 0.00179461 0.00179461 0.00610166 0.00610166 0.00610166 0.00610166 0.00610166 0.00610166 0.00610166 0.00610166
          0.00610166 0.00610166 0.00610166 0.00610166 0.00610166 0.00610166 0.00610166 0.00610166 0.0121315 0.0121315 0.0121315 0.0121315
          0.0121315 0.0121315 0.0121315 0.0121315 0.0121315 0.0121315 0.0121315 0.0121315 0.0121315 0.0121315 0.0121315 0.0121315
          0.0205734 0.0205734 0.0205734 0.0205734 0.0205734 0.0205734 0.0205734 0.0205734 0.0205734 0.0205734 0.0205734 0.0205734
          0.0205734 0.0205734 0.0205734 0.0205734 0.0323919 0.0323919 0.0323919 0.0323919 0.0323919 0.0323919 0.0323919 0.0323919
          0.0323919 0.0323919 0.0323919 0.0323919 0.0323919 0.0323919 0.0323919 0.0323919 0.0489379 0.0489379 0.0489379 0.0489379
          0.0489379 0.0489379 0.0489379 0.0489379 0.0489379 0.0489379 0.0489379 0.0489379 0.0489379 0.0489379 0.0489379 0.0489379
          0.0721023 0.0721023 0.0721023 0.0721023 0.0721023 0.0721023 0.0721023 0.0721023 0.0721023 0.0721023 0.0721023 0.0721023
          0.0721023 0.0721023 0.0721023 0.0721023 0.104532 0.104532 0.104532 0.104532 0.104532 0.104532 0.104532 0.104532
          0.104532 0.104532 0.104532 0.104532 0.104532 0.104532 0.104532 0.104532 0.104532 0.104532 0.104532 0.104532
          0.104532 0.104532 0.104532 0.104532 0.104532 0.104532 0.104532 0.104532 0.104532 0.104532 0.104532 0.104532
          0.0721023 0.0721023 0.0721023 0.0721023 0.0721023 0.0721023 0.0721023 0.0721023 0.0721023 0.0721023 0.0721023 0.0721023
          0.0721023 0.0721023 0.0721023 0.0721023 0.0489379 0.0489379 0.0489379 0.0489379 0.0489379 0.0489379 0.0489379 0.0489379
          0.0489379 0.0489379 0.0489379 0.0489379 0.0489379 0.0489379 0.0489379 0.0489379 0.0323919 0.0323919 0.0323919 0.0323919
          0.0323919 0.0323919 0.0323919 0.0323919 0.0323919 0.0323919 0.0323919 0.0323919 0.0323919 0.0323919 0.0323919 0.0323919
          0.0205734 0.0205734 0.0205734 0.0205734 0.0205734 0.0205734 0.0205734 0.0205734 0.0205734 0.0205734 0.0205734 0.0205734
          0.0205734 0.0205734 0.0205734 0.0205734 0.0121315 0.0121315 0.0121315 0.0121315 0.0121315 0.0121315 0.0121315 0.0121315
          0.0121315 0.0121315 0.0121315 0.0121315 0.0121315 0.0121315 0.0121315 0.0121315 0.00610166 0.00610166 0.00610166 0.00610166
          0.00610166 0.00610166 0.00610166 0.00610166 0.00610166 0.00610166 0.00610166 0.00610166 0.00610166 0.00610166 0.00610166 0.00610166
          0.00179461 0.00179461 0.00179461 0.00179461 0.00179461 0.00179461 0.00179461 0.00179461 0.00179461 0.00179461 0.00179461 0.00179461
          0.00179461 0.00179461 0.00179461 0.00179461
        </DataArray>
        <DataArray type="Float32" Name="y^+" NumberOfComponents="1" format="ascii">
          9.26254 8.5886 8.02697 7.71752 7.567 7.49311 7.45787 7.44394 7.44256 7.44866 7.45877 7.4703
          7.48151 7.49134 7.49944 7.50466 31.4926 29.2012 27.2917 26.2396 25.7278 25.4766 25.3568 25.3094
          25.3047 25.3255 25.3598 25.399 25.4371 25.4706 25.4981 25.5159 62.6148 58.0589 54.2623 52.1704
          51.1529 50.6534 50.4152 50.321 50.3117 50.353 50.4213 50.4992 50.575 50.6415 50.6962 50.7315
          106.186 98.4597 92.0211 88.4737 86.7481 85.901 85.497 85.3373 85.3215 85.3915 85.5073 85.6395
          85.768 85.8808 85.9735 86.0335 167.185 155.021 144.883 139.298 136.581 135.248 134.612 134.36
          134.335 134.445 134.628 134.836 135.038 135.216 135.362 135.456 252.584 234.206 218.891 210.452
          206.348 204.333 203.372 202.992 202.954 203.121 203.396 203.711 204.016 204.285 204.505 204.648
          372.143 345.066 322.501 310.069 304.021 301.052 299.636 299.077 299.021 299.267 299.673 300.136
          300.586 300.981 301.307 301.516 539.525 500.269 467.555 449.531 440.763 436.459 434.407 433.595
          433.515 433.871 434.459 435.131 435.784 436.357 436.828 437.132 539.525 500.269 467.555 449.531
          440.763 436.459 434.407 433.595 433.515 433.871 434.459 435.131 435.784 436.357 436.828 437.132
          372.143 345.066 322.501 310.069 304.021 301.052 299.636 299.077 299.021 299.267 299.673 300.136
          300.586 300.981 301.307 301.516 252.584 234.206 218.891 210.452 206.348 204.333 203.372 202.992
          202.954 203.121 203.396 203.711 204.016 204.285 204.505 204.648 167.185 155.021 144.883 139.298
          136.581 135.248 134.612 134.36 134.335 134.445 134.628 134.836 135.038 135.216 135.362 135.456
          106.186 98.4597 92.0211 88.4737 86.7481 85.901 85.497 85.3373 85.3215 85.3915 85.5073 85.6395
          85.768 85.8808 85.9735 86.0335 62.6148 58.0589 54.2623 52.1704 51.1529 50.6534 50.4152 50.321
          50.3117 50.353 50.4213 50.4992 50.575 50.6415 50.6962 50.7315 31.4926 29.2012 27.2917 26.2396
          25.7278 25.4766 25.3568 25.3094 25.3047 25.3255 25.3598 25.399 25.4371 25.4706 25.4981 25.5159
          9.26254 8.5886 8.02697 7.71752 7.567 7.49311 7.45787 7.44394 7.44256 7.44866 7.45877 7.4703
          7.48151 7.49134 7.49944 7.50466
        </DataArray>
        <DataArray type="Float32" Name="u^+" NumberOfComponents="1" format="ascii">
          26.6511 18.5636 16.1947 15.509 15.2435 15.123 15.0655 15.0409 15.0359 15.0432 15.0574 15.0745
          15.0916 15.1069 15.1197 15.1283 31.4926 29.2012 27.2917 26.2396 25.7278 25.4766 25.3568 25.3094
          25.3047 25.3255 25.3598 25.399 25.4371 25.4706 25.4981 25.5159 33.1429 33.6499 32.9945 32.0027
          31.329 30.952 30.7571 30.6698 30.6474 30.6639 30.7017 30.7482 30.7947 30.8364 30.8711 30.8935
          33.7664 35.9714 36.922 36.4714 35.7594 35.2567 34.9638 34.8135 34.7538 34.7502 34.7788 34.8223
          34.8696 34.9139 34.9517 34.9762 34.0031 37.0825 39.4488 40.0825 39.7033 39.1776 38.7937 38.5641
          38.4479 38.4063 38.4102 38.4385 38.4766 38.5156 38.5505 38.5735 34.0949 37.5335 40.738 42.5457
          43.0638 42.8947 42.5526 42.2711 42.091 41.9929 41.9516 41.9448 41.9557 41.9738 41.9925 42.0052
          34.1278 37.696 41.2285 43.6986 45.1627 45.882 46.081 46.0005 45.8359 45.687 45.5793 45.5047
          45.4502 45.4085 45.3756 45.3541 34.1364 37.743 41.3729 44.0496 45.9067 47.2439 48.1923 48.7967
          49.0947 49.1484 49.0395 48.8483 48.6358 48.4382 48.2715 48.1638 34.1364 37.743 41.3729 44.0496
          45.9067 47.2439 48.1923 48.7967 49.0947 49.1484 49.0395 48.8483 48.6358 48.4382 48.2715 48.1638
          34.1278 37.696 41.2285 43.6986 45.1627 45.882 46.081 46.0005 45.8359 45.687 45.5793 45.5047
          45.4502 45.4085 45.3756 45.3541 34.0949 37.5335 40.738 42.5457 43.0638 42.8947 42.5526 42.2711
          42.091 41.9929 41.9516 41.9448 41.9557 41.9738 41.9925 42.0052 34.0031 37.0825 39.4488 40.0825
          39.7033 39.1776 38.7937 38.5641 38.4479 38.4063 38.4102 38.4385 38.4766 38.5156 38.5505 38.5735
          33.7664 35.9714 36.922 36.4714 35.7594 35.2567 34.9638 34.8135 34.7538 34.7502 34.7788 34.8223
          34.8696 34.9139 34.9517 34.9762 33.1429 33.6499 32.9945 32.0027 31.329 30.952 30.7571 30.6698
          30.6474 30.6639 30.7017 30.7482 30.7947 30.8364 30.8711 30.8935 31.4926 29.2012 27.2917 26.2396
          25.7278 25.4766 25.3568 25.3094 25.3047 25.3255 25.3598 25.399 25.4371 25.4706 25.4981 25.5159
          26.6511 18.5636 16.1947 15.509 15.2435 15.123 15.0655 15.0409 15.0359 15.0432 15.0574 15.0745
          15.0916 15.1069 15.1197 15.1283
        </DataArray>
        <DataArray type="Float32" Name="turbulentKineticEnergy" NumberOfComponents="1" format="ascii">
          0.0368328 0.0478486 0.0776051 0.0937228 0.104066 0.111965 0.118569 0.124416 0.129741 0.134573 0.138826 0.142382
          0.145178 0.147244 0.148673 0.149532 0.0131468 0.0619692 0.116676 0.142642 0.157053 0.167245 0.17557 0.182918
          0.189617 0.195703 0.20107 0.205562 0.209096 0.211707 0.213511 0.214604 0.012236 0.0278987 0.0699448 0.103147
          0.123064 0.13603 0.145667 0.153569 0.160402 0.166373 0.171485 0.175659 0.178867 0.181179 0.182731 0.183666
          0.012418 0.014841 0.0346479 0.064473 0.0880031 0.103949 0.115279 0.124012 0.13115 0.137101 0.141997 0.145857
          0.148721 0.150709 0.151981 0.152737 0.0127078 0.0113658 0.0162127 0.0324038 0.0539254 0.0721994 0.0858179 0.0960476
          0.104018 0.110337 0.11528 0.118988 0.121602 0.12331 0.124322 0.124907 0.0129682 0.0106605 0.0103459 0.0142311
          0.0248044 0.0399818 0.0548523 0.0669826 0.0764214 0.0836838 0.0890883 0.092912 0.0954389 0.0969719 0.0977937 0.0982603
          0.0131261 0.010668 0.00911739 0.00874276 0.0104301 0.0154244 0.0240003 0.0346194 0.0450162 0.053643 0.059994 0.0643383
          0.0671513 0.0688716 0.0698437 0.0704659 0.0131874 0.0107513 0.00900497 0.00779586 0.00714026 0.00725069 0.00852432 0.0113693
          0.015831 0.0213852 0.0272038 0.0325022 0.0368534 0.0401599 0.0425232 0.0441925 0.0131874 0.0107513 0.00900497 0.00779586
          0.00714026 0.00725069 0.00852432 0.0113693 0.015831 0.0213852 0.0272038 0.0325022 0.0368534 0.0401599 0.0425232 0.0441925
          0.0131261 0.010668 0.00911739 0.00874276 0.0104301 0.0154244 0.0240003 0.0346194 0.0450162 0.053643 0.059994 0.0643383
          0.0671513 0.0688716 0.0698437 0.0704659 0.0129682 0.0106605 0.0103459 0.0142311 0.0248044 0.0399818 0.0548523 0.0669826
          0.0764214 0.0836838 0.0890883 0.092912 0.0954389 0.0969719 0.0977937 0.0982603 0.0127078 0.0113658 0.0162127 0.0324038
          0.0539254 0.0721994 0.0858179 0.0960476 0.104018 0.110337 0.11528 0.118988 0.121602 0.12331 0.124322 0.124907
          0.012418 0.014841 0.0346479 0.064473 0.0880031 0.103949 0.115279 0.124012 0.13115 0.137101 0.141997 0.145857
          0.148721 0.150709 0.151981 0.152737 0.012236 0.0278987 0.0699448 0.103147 0.123064 0.13603 0.145667 0.153569
          0.160402 0.166373 0.171485 0.175659 0.178867 0.181179 0.182731 0.183666 0.0131468 0.0619692 0.116676 0.142642
          0.157053 0.167245 0.17557 0.182918 0.189617 0.195703 0.20107 0.205562 0.209096 0.211707 0.213511 0.214604
          0.0368328 0.0478486 0.0776051 0.0937228 0.104066 0.111965 0.118569 0.124416 0.129741 0.134573 0.138826 0.142382
          0.145178 0.147244 0.148673 0.149532
        </DataArray>
        <DataArray type="Float32" Name="dissipation" NumberOfComponents="1" format="ascii">
          1.07252 1.17812 1.57837 1.70237 1.7706 1.83403 1.89956 1.96791 2.03804 2.10755 2.17302 2.23094
          2.27888 2.31611 2.34339 2.36035 0.141638 0.794005 1.47253 1.66577 1.72507 1.7677 1.81472 1.86805
          1.92586 1.98505 2.04207 2.09326 2.13614 2.16977 2.19457 2.21022 0.0422069 0.206855 0.591364 0.850017
          0.968187 1.03234 1.08047 1.12452 1.16754 1.20923 1.24811 1.28225 1.31032 1.33195 1.34756 1.35745
          0.0214298 0.0549079 0.188465 0.377039 0.510417 0.588274 0.638707 0.677542 0.711128 0.74126 0.767989 0.790636
          0.808674 0.822136 0.831502 0.837413 0.0158326 0.0201155 0.0492362 0.125765 0.225093 0.305 0.359647 0.398237
          0.427803 0.451697 0.471173 0.486569 0.498047 0.506023 0.511108 0.514218 0.0142844 0.0119802 0.0153116 0.0309598
          0.0671341 0.11873 0.169152 0.208902 0.238312 0.260187 0.276235 0.287533 0.294923 0.299286 0.30147 0.302627
          0.0139434 0.0102105 0.00854489 0.00941656 0.0147407 0.0273549 0.0483524 0.0746703 0.100765 0.122298 0.137564 0.147221
          0.152732 0.155482 0.156522 0.156991 0.0139009 0.0099366 0.00747247 0.00603363 0.00553986 0.00627328 0.00882735 0.0138192
          0.0213152 0.0304681 0.0399411 0.0483961 0.0551449 0.060088 0.0634604 0.0657522 0.0139009 0.0099366 0.00747247 0.00603363
          0.00553986 0.00627328 0.00882735 0.0138192 0.0213152 0.0304681 0.0399411 0.0483961 0.0551449 0.060088 0.0634604 0.0657522
          0.0139434 0.0102105 0.00854489 0.00941656 0.0147407 0.0273549 0.0483524 0.0746703 0.100765 0.122298 0.137564 0.147221
          0.152732 0.155482 0.156522 0.156991 0.0142844 0.0119802 0.0153116 0.0309598 0.0671341 0.11873 0.169152 0.208902
          0.238312 0.260187 0.276235 0.287533 0.294923 0.299286 0.30147 0.302627 0.0158326 0.0201155 0.0492362 0.125765
          0.225093 0.305 0.359647 0.398237 0.427803 0.451697 0.471173 0.486569 0.498047 0.506023 0.511108 0.514218
          0.0214298 0.0549079 0.188465 0.377039 0.510417 0.588274 0.638707 0.677542 0.711128 0.74126 0.767989 0.790636
          0.808674 0.822136 0.831502 0.837413 0.0422069 0.206855 0.591364 0.850017 0.968187 1.03234 1.08047 1.12452
          1.16754 1.20923 1.24811 1.28225 1.31032 1.33195 1.34756 1.35745 0.141638 0.794005 1.47253 1.66577
          1.72507 1.7677 1.81472 1.86805 1.92586 1.98505 2.04207 2.09326 2.13614 2.16977 2.19457 2.21022
          1.07252 1.17812 1.57837 1.70237 1.7706 1.83403 1.89956 1.96791 2.03804 2.10755 2.17302 2.23094
          2.27888 2.31611 2.34339 2.36035
        </DataArray>
        <DataArray type="Float32" Name="stressTensorScalarProduct" NumberOfComponents="1" format="ascii">
          73297.3 54179.8 41338.4 35323.4 32647.4 31390.8 30804.7 30575.2 30552.7 30653.3 30820.1 31011.3
          31198 31362.5 31498.5 31586.5 1085.95 5038.58 5457.73 4862.91 4446.54 4222.17 4110.31 4062.36
          4051.8 4063.29 4086.65 4114.69 4142.6 4167.53 4188.18 4201.36 68.051 517.712 915.015 954.777
          882.326 822.353 786.077 766.455 757.335 754.678 755.793 758.836 762.605 766.374 769.707 771.882
          4.98525 67.8848 209.687 303.749 313.7 296.779 280.646 269.787 263.318 259.838 258.273 257.856
          258.062 258.563 259.139 259.545 0.384095 7.1683 37.3827 87.5733 121.754 130.548 127.666 122.833
          118.859 116.01 114.094 112.849 112.036 111.502 111.141 110.925 0.0450372 0.574238 4.1495 15.827
          34.6896 51.3099 60.0547 62.3078 61.4818 59.8096 58.1482 56.6683 55.3613 54.2293 53.2834 52.666
          0.0217558 0.0513304 0.284141 1.40577 4.80129 11.0131 18.3465 24.4749 28.1846 29.4713 28.9981 27.5955
          25.9173 24.3355 23.0101 22.1671 0.0211289 0.0214228 0.0289495 0.0660063 0.220527 0.686057 1.61499 2.81485
          3.81973 4.31685 4.32625 4.05262 3.68995 3.34659 3.06427 2.88843 0.0211289 0.0214228 0.0289495 0.0660063
          0.220527 0.686057 1.61499 2.81485 3.81973 4.31685 4.32625 4.05262 3.68995 3.34659 3.06427 2.88843
          0.0217558 0.0513304 0.284141 1.40577 4.80129 11.0131 18.3465 24.4749 28.1846 29.4713 28.9981 27.5955
          25.9173 24.3355 23.0101 22.1671 0.0450372 0.574238 4.1495 15.827 34.6896 51.3099 60.0547 62.3078
          61.4818 59.8096 58.1482 56.6683 55.3613 54.2293 53.2834 52.666 0.384095 7.1683 37.3827 87.5733
          121.754 130.548 127.666 122.833 118.859 116.01 114.094 112.849 112.036 111.502 111.141 110.925
          4.98525 67.8848 209.687 303.749 313.7 296.779 280.646 269.787 263.318 259.838 258.273 257.856
          258.062 258.563 259.139 259.545 68.051 517.712 915.015 954.777 882.326 822.353 786.077 766.455
          757.335 754.678 755.793 758.836 762.605 766.374 769.707 771.882 1085.95 5038.58 5457.73 4862.91
          4446.54 4222.17 4110.31 4062.36 4051.8 4063.29 4086.65 4114.69 4142.6 4167.53 4188.18 4201.36
          73297.3 54179.8 41338.4 35323.4 32647.4 31390.8 30804.7 30575.2 30552.7 30653.3 30820.1 31011.3
          31198 31362.5 31498.5 31586.5
        </DataArray>
        <DataArray type="Float32" Name="eddyViscosity" NumberOfComponents="1" format="ascii">
          1.15029e-05 1.64491e-05 3.02812e-05 3.94388e-05 4.58782e-05 5.07904e-05 5.47464e-05 5.80817e-05 6.09754e-05 6.34889e-05 6.56149e-05 6.73278e-05
          6.86253e-05 6.95449e-05 7.01504e-05 7.05008e-05 3.33686e-05 0.000124162 0.000224128 0.000286352 0.000329582 0.00036167 0.000386674 0.000407076
          0.000424244 0.000438755 0.000450749 0.00046021 0.000467228 0.000472092 0.000475205 0.000476982 0.000163868 0.000164954 0.000345632 0.000508231
          0.000626066 0.000712239 0.000777644 0.000829301 0.000871291 0.000905611 0.00093309 0.000954097 0.000969174 0.000979232 0.000985358 0.000988763
          0.000456646 0.000244667 0.000374313 0.000633522 0.000861998 0.00103755 0.00117204 0.00127719 0.00136085 0.00142741 0.00147908 0.00151728
          0.00154368 0.00156051 0.00157016 0.00157534 0.000783744 0.000480779 0.000389678 0.000599996 0.000920973 0.00121345 0.00145105 0.00164019
          0.00179062 0.00190888 0.00199876 0.00206342 0.00210676 0.00213346 0.0021481 0.00215599 0.00100157 0.000795996 0.000578397 0.000536395
          0.000747945 0.00109615 0.00144647 0.00174573 0.00199186 0.00218808 0.00233657 0.00244256 0.00251364 0.00255813 0.00258361 0.00259891
          0.0010967 0.000984185 0.000854085 0.000709891 0.000644066 0.0007582 0.00103798 0.00139821 0.00175187 0.00204984 0.00227978 0.00245038
          0.0025735 0.0026596 0.00271746 0.00275814 0.00112368 0.00104362 0.000972146 0.000901394 0.00082306 0.00074925 0.000735839 0.000836082
          0.00105098 0.00134171 0.0016563 0.00195137 0.00220191 0.0023998 0.00254772 0.00265589 0.00112368 0.00104362 0.000972146 0.000901394
          0.00082306 0.00074925 0.000735839 0.000836082 0.00105098 0.00134171 0.0016563 0.00195137 0.00220191 0.0023998 0.00254772 0.00265589
          0.0010967 0.000984185 0.000854085 0.000709891 0.000644066 0.0007582 0.00103798 0.00139821 0.00175187 0.00204984 0.00227978 0.00245038
          0.0025735 0.0026596 0.00271746 0.00275814 0.00100157 0.000795996 0.000578397 0.000536395 0.000747945 0.00109615 0.00144647 0.00174573
          0.00199186 0.00218808 0.00233657 0.00244256 0.00251364 0.00255813 0.00258361 0.00259891 0.000783744 0.000480779 0.000389678 0.000599996
          0.000920973 0.00121345 0.00145105 0.00164019 0.00179062 0.00190888 0.00199876 0.00206342 0.00210676 0.00213346 0.0021481 0.00215599
          0.000456646 0.000244667 0.000374313 0.000633522 0.000861998 0.00103755 0.00117204 0.00127719 0.00136085 0.00142741 0.00147908 0.00151728
          0.00154368 0.00156051 0.00157016 0.00157534 0.000163868 0.000164954 0.000345632 0.000508231 0.000626066 0.000712239 0.000777644 0.000829301
          0.000871291 0.000905611 0.00093309 0.000954097 0.000969174 0.000979232 0.000985358 0.000988763 3.33686e-05 0.000124162 0.000224128 0.000286352
          0.000329582 0.00036167 0.000386674 0.000407076 0.000424244 0.000438755 0.000450749 0.00046021 0.000467228 0.000472092 0.000475205 0.000476982
          1.15029e-05 1.64491e-05 3.02812e-05 3.94388e-05 4.58782e-05 5.07904e-05 5.47464e-05 5.80817e-05 6.09754e-05 6.34889e-05 6.56149e-05 6.73278e-05
          6.86253e-05 6.95449e-05 7.01504e-05 7.05008e-05
        </DataArray>
        <DataArray type="Float32" Name="production_k" NumberOfComponents="1" format="ascii">
          1.68627 1.78242 2.50355 2.78623 2.9956 3.18871 3.37288 3.55172 3.72592 3.89229 4.04452 4.17585
          4.28194 4.36221 4.41926 4.45375 0.0724733 1.2512 2.44646 2.785 2.931 3.05406 3.1787 3.30738
          3.4379 3.56557 3.6841 3.78725 3.87108 3.93492 3.98049 4.00795 0.0223028 0.170798 0.632517 0.970494
          1.10479 1.17142 1.22258 1.27125 1.31972 1.36689 1.41044 1.44801 1.47819 1.50092 1.51687 1.52642
          0.00455299 0.0332183 0.156977 0.384863 0.540818 0.615845 0.657856 0.68914 0.716675 0.74179 0.764014 0.782479
          0.796729 0.806982 0.813778 0.817744 0.000602064 0.00689273 0.0291345 0.105087 0.224265 0.316828 0.370498 0.402939
          0.425664 0.442899 0.456093 0.465708 0.472066 0.475769 0.477484 0.478305 9.02159e-05 0.000914181 0.00480011 0.016979
          0.0518918 0.112487 0.173735 0.217545 0.244927 0.261736 0.271735 0.276832 0.278317 0.277451 0.275327 0.273749
          4.7719e-05 0.000101037 0.000485361 0.00199589 0.0061847 0.0167003 0.0380865 0.0684419 0.0987515 0.120823 0.132219 0.135239
          0.133396 0.129446 0.125058 0.12228 4.74842e-05 4.47146e-05 5.62862e-05 0.000118995 0.000363013 0.00102806 0.00237675 0.0047069
          0.00802891 0.0115839 0.0143311 0.0158163 0.0162499 0.0160623 0.0156138 0.0153427 4.74842e-05 4.47146e-05 5.62862e-05 0.000118995
          0.000363013 0.00102806 0.00237675 0.0047069 0.00802891 0.0115839 0.0143311 0.0158163 0.0162499 0.0160623 0.0156138 0.0153427
          4.7719e-05 0.000101037 0.000485361 0.00199589 0.0061847 0.0167003 0.0380865 0.0684419 0.0987515 0.120823 0.132219 0.135239
          0.133396 0.129446 0.125058 0.12228 9.02159e-05 0.000914181 0.00480011 0.016979 0.0518918 0.112487 0.173735 0.217545
          0.244927 0.261736 0.271735 0.276832 0.278317 0.277451 0.275327 0.273749 0.000602064 0.00689273 0.0291345 0.105087
          0.224265 0.316828 0.370498 0.402939 0.425664 0.442899 0.456093 0.465708 0.472066 0.475769 0.477484 0.478305
          0.00455299 0.0332183 0.156977 0.384863 0.540818 0.615845 0.657856 0.68914 0.716675 0.74179 0.764014 0.782479
          0.796729 0.806982 0.813778 0.817744 0.0223028 0.170798 0.632517 0.970494 1.10479 1.17142 1.22258 1.27125
          1.31972 1.36689 1.41044 1.44801 1.47819 1.50092 1.51687 1.52642 0.0724733 1.2512 2.44646 2.785
          2.931 3.05406 3.1787 3.30738 3.4379 3.56557 3.6841 3.78725 3.87108 3.93492 3.98049 4.00795
          1.68627 1.78242 2.50355 2.78623 2.9956 3.18871 3.37288 3.55172 3.72592 3.89229 4.04452 4.17585
          4.28194 4.36221 4.41926 4.45375
        </DataArray>
        <DataArray type="Float32" Name="production_eps" NumberOfComponents="1" format="ascii">
          66.2874 59.2465 68.74 68.3219 68.8063 70.5136 72.9487 75.8403 79.0139 82.292 85.4661 88.3305
          90.7388 92.6326 94.0358 94.9077 1.05407 21.6425 41.6827 43.9062 43.4621 43.578 44.3549 45.5986
          47.1384 48.8244 50.5112 52.0642 53.3887 54.4438 55.2331 55.7255 0.103857 1.70962 7.21948 10.7969
          11.7339 12.0016 12.2423 12.5669 12.9681 13.412 13.8585 14.2695 14.6188 14.896 15.1015 15.2301
          0.0106071 0.165914 1.15272 3.03842 4.2346 4.70504 4.92058 5.08294 5.24608 5.41432 5.5784 5.72607
          5.8485 5.94295 6.01055 6.05265 0.00101265 0.0164685 0.119445 0.550612 1.26375 1.80686 2.09613 2.25542
          2.36339 2.44773 2.51659 2.57091 2.61015 2.63573 2.65007 2.65826 0.000134153 0.00138692 0.0095904 0.0498662
          0.189603 0.450955 0.723275 0.915932 1.0311 1.09861 1.13746 1.15656 1.16107 1.15601 1.14582 1.13819
          6.8432e-05 0.00013055 0.000614093 0.00290211 0.0118 0.039984 0.103587 0.199289 0.298412 0.371869 0.409284 0.417767
          0.409591 0.394513 0.37835 0.367778 6.75718e-05 5.57907e-05 6.30547e-05 0.000124331 0.000380225 0.00120079 0.00332268 0.00772359
          0.0145938 0.0222803 0.0284056 0.0317933 0.0328255 0.032444 0.031457 0.0308176 6.75718e-05 5.57907e-05 6.30547e-05 0.000124331
          0.000380225 0.00120079 0.00332268 0.00772359 0.0145938 0.0222803 0.0284056 0.0317933 0.0328255 0.032444 0.031457 0.0308176
          6.8432e-05 0.00013055 0.000614093 0.00290211 0.0118 0.039984 0.103587 0.199289 0.298412 0.371869 0.409284 0.417767
          0.409591 0.394513 0.37835 0.367778 0.000134153 0.00138692 0.0095904 0.0498662 0.189603 0.450955 0.723275 0.915932
          1.0311 1.09861 1.13746 1.15656 1.16107 1.15601 1.14582 1.13819 0.00101265 0.0164685 0.119445 0.550612
          1.26375 1.80686 2.09613 2.25542 2.36339 2.44773 2.51659 2.57091 2.61015 2.63573 2.65007 2.65826
          0.0106071 0.165914 1.15272 3.03842 4.2346 4.70504 4.92058 5.08294 5.24608 5.41432 5.5784 5.72607
          5.8485 5.94295 6.01055 6.05265 0.103857 1.70962 7.21948 10.7969 11.7339 12.0016 12.2423 12.5669
          12.9681 13.412 13.8585 14.2695 14.6188 14.896 15.1015 15.2301 1.05407 21.6425 41.6827 43.9062
          43.4621 43.578 44.3549 45.5986 47.1384 48.8244 50.5112 52.0642 53.3887 54.4438 55.2331 55.7255
          66.2874 59.2465 68.74 68.3219 68.8063 70.5136 72.9487 75.8403 79.0139 82.292 85.4661 88.3305
          90.7388 92.6326 94.0358 94.9077
        </DataArray>
        <DataArray type="Float32" Name="destruction_k" NumberOfComponents="1" format="ascii">
          1.07252 1.17812 1.57837 1.70237 1.7706 1.83403 1.89956 1.96791 2.03804 2.10755 2.17302 2.23094
          2.27888 2.31611 2.34339 2.36035 0.141638 0.794005 1.47253 1.66577 1.72507 1.7677 1.81472 1.86805
          1.92586 1.98505 2.04207 2.09326 2.13614 2.16977 2.19457 2.21022 0.0422069 0.206855 0.591364 0.850017
          0.968187 1.03234 1.08047 1.12452 1.16754 1.20923 1.24811 1.28225 1.31032 1.33195 1.34756 1.35745
          0.0214298 0.0549079 0.188465 0.377039 0.510417 0.588274 0.638707 0.677542 0.711128 0.74126 0.767989 0.790636
          0.808674 0.822136 0.831502 0.837413 0.0158326 0.0201155 0.0492362 0.125765 0.225093 0.305 0.359647 0.398237
          0.427803 0.451697 0.471173 0.486569 0.498047 0.506023 0.511108 0.514218 0.0142844 0.0119802 0.0153116 0.0309598
          0.0671341 0.11873 0.169152 0.208902 0.238312 0.260187 0.276235 0.287533 0.294923 0.299286 0.30147 0.302627
          0.0139434 0.0102105 0.00854489 0.00941656 0.0147407 0.0273549 0.0483524 0.0746703 0.100765 0.122298 0.137564 0.147221
          0.152732 0.155482 0.156522 0.156991 0.0139009 0.0099366 0.00747247 0.00603363 0.00553986 0.00627328 0.00882735 0.0138192
          0.0213152 0.0304681 0.0399411 0.0483961 0.0551449 0.060088 0.0634604 0.0657522 0.0139009 0.0099366 0.00747247 0.00603363
          0.00553986 0.00627328 0.00882735 0.0138192 0.0213152 0.0304681 0.0399411 0.0483961 0.0551449 0.060088 0.0634604 0.0657522
          0.0139434 0.0102105 0.00854489 0.00941656 0.0147407 0.0273549 0.0483524 0.0746703 0.100765 0.122298 0.137564 0.147221
          0.152732 0.155482 0.156522 0.156991 0.0142844 0.0119802 0.0153116 0.0309598 0.0671341 0.11873 0.169152 0.208902
          0.238312 0.260187 0.276235 0.287533 0.294923 0.299286 0.30147 0.302627 0.0158326 0.0201155 0.0492362 0.125765
          0.225093 0.305 0.359647 0.398237 0.427803 0.451697 0.471173 0.486569 0.498047 0.506023 0.511108 0.514218
          0.0214298 0.0549079 0.188465 0.377039 0.510417 0.588274 0.638707 0.677542 0.711128 0.74126 0.767989 0.790636
          0.808674 0.822136 0.831502 0.837413 0.0422069 0.206855 0.591364 0.850017 0.968187 1.03234 1.08047 1.12452
          1.16754 1.20923 1.24811 1.28225 1.31032 1.33195 1.34756 1.35745 0.141638 0.794005 1.47253 1.66577
          1.72507 1.7677 1.81472 1.86805 1.92586 1.98505 2.04207 2.09326 2.13614 2.16977 2.19457 2.21022
          1.07252 1.17812 1.57837 1.70237 1.7706 1.83403 1.89956 1.96791 2.03804 2.10755 2.17302 2.23094
          2.27888 2.31611 2.34339 2.36035
        </DataArray>
        <DataArray type="Float32" Name="destruction_eps" NumberOfComponents="1" format="ascii">
          56.2147 52.2134 57.7831 55.6592 54.2255 54.0757 54.7783 56.0279 57.6262 59.4113 61.2252 62.9205
          64.3891 65.5777 66.4855 67.0643 2.7467 18.3123 33.4518 35.015 34.1068 33.6308 33.7629 34.3397
          35.2082 36.2426 37.3306 38.3688 39.2812 40.0282 40.6024 40.9738 0.262059 2.76072 8.99968 12.6088
          13.7107 14.1022 14.4257 14.8219 15.297 15.82 16.3512 16.8481 17.2782 17.6253 17.8878 18.0588
          0.066567 0.365661 1.84526 3.96887 5.32875 5.99254 6.3698 6.66319 6.94064 7.21392 7.47656 7.71435
          7.9149 8.07274 8.1886 8.26432 0.0355066 0.0640815 0.269144 0.878603 1.69123 2.3192 2.71299 2.97214
          3.16702 3.32847 3.4664 3.58143 3.67175 3.73778 3.78225 3.81047 0.0283216 0.0242339 0.0407891 0.121236
          0.327061 0.634643 0.938932 1.17272 1.33767 1.45614 1.54174 1.60169 1.64046 1.66264 1.67283 1.67768
          0.0266609 0.0175906 0.014415 0.0182561 0.0374991 0.0873242 0.175344 0.2899 0.405995 0.50188 0.567774 0.606375
          0.625282 0.631822 0.631384 0.629569 0.0263753 0.0165306 0.0111614 0.00840555 0.00773671 0.00976974 0.0164541 0.0302348
          0.0516584 0.0781357 0.105556 0.129712 0.148527 0.161828 0.170471 0.176094 0.0263753 0.0165306 0.0111614 0.00840555
          0.00773671 0.00976974 0.0164541 0.0302348 0.0516584 0.0781357 0.105556 0.129712 0.148527 0.161828 0.170471 0.176094
          0.0266609 0.0175906 0.014415 0.0182561 0.0374991 0.0873242 0.175344 0.2899 0.405995 0.50188 0.567774 0.606375
          0.625282 0.631822 0.631384 0.629569 0.0283216 0.0242339 0.0407891 0.121236 0.327061 0.634643 0.938932 1.17272
          1.33767 1.45614 1.54174 1.60169 1.64046 1.66264 1.67283 1.67768 0.0355066 0.0640815 0.269144 0.878603
          1.69123 2.3192 2.71299 2.97214 3.16702 3.32847 3.4664 3.58143 3.67175 3.73778 3.78225 3.81047
          0.066567 0.365661 1.84526 3.96887 5.32875 5.99254 6.3698 6.66319 6.94064 7.21392 7.47656 7.71435
          7.9149 8.07274 8.1886 8.26432 0.262059 2.76072 8.99968 12.6088 13.7107 14.1022 14.4257 14.8219
          15.297 15.82 16.3512 16.8481 17.2782 17.6253 17.8878 18.0588 2.7467 18.3123 33.4518 35.015
          34.1068 33.6308 33.7629 34.3397 35.2082 36.2426 37.3306 38.3688 39.2812 40.0282 40.6024 40.9738
          56.2147 52.2134 57.7831 55.6592 54.2255 54.0757 54.7783 56.0279 57.6262 59.4113 61.2252 62.9205
          64.3891 65.5777 66.4855 67.0643
        </DataArray>
        <DataArray type="Float32" Name="dValue" NumberOfComponents="1" format="ascii">
          0.32874 0.42706 0.692644 0.8365 0.928822 0.999317 1.05827 1.11046 1.15798 1.20112 1.23908 1.27082
          1.29578 1.31422 1.32698 1.33465 0.0101503 0.047845 0.090083 0.110131 0.121258 0.129127 0.135555 0.141228
          0.146401 0.151101 0.155245 0.158713 0.161443 0.163459 0.164852 0.165696 0.00238982 0.00544891 0.013661 0.0201457
          0.0240359 0.0265683 0.0284506 0.029994 0.0313286 0.032495 0.0334935 0.0343088 0.0349354 0.0353872 0.0356903 0.035873
          0.000843328 0.00100788 0.00235301 0.00437851 0.0059765 0.00705946 0.00782891 0.00842199 0.0089068 0.009311 0.00964352 0.00990565
          0.0101002 0.0102352 0.0103216 0.010373 0.000348139 0.000311376 0.000444161 0.000887732 0.00147734 0.00197798 0.00235107 0.00263133
          0.0028497 0.00302283 0.00315825 0.00325986 0.00333147 0.00337827 0.003406 0.00342205 0.000155649 0.000127951 0.000124176 0.000170807
          0.000297714 0.00047988 0.000658365 0.00080396 0.000917251 0.00100442 0.00106929 0.00111519 0.00114552 0.00116392 0.00117379 0.00117939
          7.2576e-05 5.89853e-05 5.04116e-05 4.83404e-05 5.76698e-05 8.52846e-05 0.000132703 0.000191419 0.000248906 0.000296606 0.000331723 0.000355745
          0.0003713 0.000380813 0.000386189 0.00038963 3.46909e-05 2.82823e-05 2.36886e-05 2.05079e-05 1.87833e-05 1.90739e-05 2.24243e-05 2.99085e-05
          4.16459e-05 5.62571e-05 7.15639e-05 8.55025e-05 9.69492e-05 0.000105648 0.000111865 0.000116257 3.46909e-05 2.82823e-05 2.36886e-05 2.05079e-05
          1.87833e-05 1.90739e-05 2.24243e-05 2.99085e-05 4.16459e-05 5.62571e-05 7.15639e-05 8.55025e-05 9.69492e-05 0.000105648 0.000111865 0.000116257
          7.2576e-05 5.89853e-05 5.04116e-05 4.83404e-05 5.76698e-05 8.52846e-05 0.000132703 0.000191419 0.000248906 0.000296606 0.000331723 0.000355745
          0.0003713 0.000380813 0.000386189 0.00038963 0.000155649 0.000127951 0.000124176 0.000170807 0.000297714 0.00047988 0.000658365 0.00080396
          0.000917251 0.00100442 0.00106929 0.00111519 0.00114552 0.00116392 0.00117379 0.00117939 0.000348139 0.000311376 0.000444161 0.000887732
          0.00147734 0.00197798 0.00235107 0.00263133 0.0028497 0.00302283 0.00315825 0.00325986 0.00333147 0.00337827 0.003406 0.00342205
          0.000843328 0.00100788 0.00235301 0.00437851 0.0059765 0.00705946 0.00782891 0.00842199 0.0089068 0.009311 0.00964352 0.00990565
          0.0101002 0.0102352 0.0103216 0.010373 0.00238982 0.00544891 0.013661 0.0201457 0.0240359 0.0265683 0.0284506 0.029994
          0.0313286 0.032495 0.0334935 0.0343088 0.0349354 0.0353872 0.0356903 0.035873 0.0101503 0.047845 0.090083 0.110131
          0.121258 0.129127 0.135555 0.141228 0.146401 0.151101 0.155245 0.158713 0.161443 0.163459 0.164852 0.165696
          0.32874 0.42706 0.692644 0.8365 0.928822 0.999317 1.05827 1.11046 1.15798 1.20112 1.23908 1.27082
          1.29578 1.31422 1.32698 1.33465
        </DataArray>
        <DataArray type="Float32" Name="eValue" NumberOfComponents="1" format="ascii">
          -0.0932585 -0.143489 -0.254563 -0.320507 -0.359409 -0.386296 -0.407213 -0.424814 -0.440258 -0.453887 -0.46563 -0.475292
          -0.482795 -0.488278 -0.492033 -0.494303 -1.58599e-08 -2.79588e-07 -1.34714e-06 -2.57885e-06 -3.44944e-06 -4.00783e-06 -4.36843e-06 -4.60462e-06
          -4.75826e-06 -4.85387e-06 -4.90825e-06 -4.93363e-06 -4.9397e-06 -4.93429e-06 -4.9225e-06 -4.91376e-06 -2.0868e-16 -9.9784e-15 -1.90404e-13 -7.78908e-13
          -1.47561e-12 -2.01979e-12 -2.38135e-12 -2.59795e-12 -2.70995e-12 -2.74937e-12 -2.7425e-12 -2.70981e-12 -2.66622e-12 -2.6216e-12 -2.58076e-12 -2.55419e-12
          -1.27355e-26 -1.55359e-24 -1.33366e-22 -1.57225e-21 -5.04386e-21 -8.87913e-21 -1.17981e-20 -1.35561e-20 -1.43411e-20 -1.44344e-20 -1.41135e-20 -1.36002e-20
          -1.30451e-20 -1.25352e-20 -1.21033e-20 -1.18297e-20 -2.15496e-40 -1.19921e-37 -4.66569e-35 -1.94548e-33 -1.35452e-32 -3.5756e-32 -5.79481e-32 -7.27635e-32
          -7.91456e-32 -7.9084e-32 -7.5305e-32 -7.00784e-32 -6.48326e-32 -6.02754e-32 -5.65926e-32 -5.43142e-32 -0 -0 -0 -0
          -0 -0 -0 -0 -0 -0 -0 -0 -0 -0 -0 -0
          -0 -0 -0 -0 -0 -0 -0 -0 -0 -0 -0 -0
          -0 -0 -0 -0 -0 -0 -0 -0 -0 -0 -0 -0
          -0 -0 -0 -0 -0 -0 -0 -0 -0 -0 -0 -0
          -0 -0 -0 -0 -0 -0 -0 -0 -0 -0 -0 -0
          -0 -0 -0 -0 -0 -0 -0 -0 -0 -0 -0 -0
          -0 -0 -0 -0 -0 -0 -0 -0 -0 -0 -0 -0
          -0 -0 -0 -0 -0 -0 -0 -0 -2.15496e-40 -1.19921e-37 -4.66569e-35 -1.94548e-33
          -1.35452e-32 -3.5756e-32 -5.79481e-32 -7.27635e-32 -7.91456e-32 -7.9084e-32 -7.5305e-32 -7.00784e-32 -6.48326e-32 -6.02754e-32 -5.65926e-32 -5.43142e-32
          -1.27355e-26 -1.55359e-24 -1.33366e-22 -1.57225e-21 -5.04386e-21 -8.87913e-21 -1.17981e-20 -1.35561e-20 -1.43411e-20 -1.44344e-20 -1.41135e-20 -1.36002e-20
          -1.30451e-20 -1.25352e-20 -1.21033e-20 -1.18297e-20 -2.0868e-16 -9.9784e-15 -1.90404e-13 -7.78908e-13 -1.47561e-12 -2.01979e-12 -2.38135e-12 -2.59795e-12
          -2.70995e-12 -2.74937e-12 -2.7425e-12 -2.70981e-12 -2.66622e-12 -2.6216e-12 -2.58076e-12 -2.55419e-12 -1.58599e-08 -2.79588e-07 -1.34714e-06 -2.57885e-06
          -3.44944e-06 -4.00783e-06 -4.36843e-06 -4.60462e-06 -4.75826e-06 -4.85387e-06 -4.90825e-06 -4.93363e-06 -4.9397e-06 -4.93429e-06 -4.9225e-06 -4.91376e-06
          -0.0932585 -0.143489 -0.254563 -0.320507 -0.359409 -0.386296 -0.407213 -0.424814 -0.440258 -0.453887 -0.46563 -0.475292
          -0.482795 -0.488278 -0.492033 -0.494303
        </DataArray>
        <DataArray type="Float32" Name="dv_x/dx_" NumberOfComponents="3" format="ascii">
          -1.30468 382.867 0 -0.748722 329.18 0 -0.254634 287.536 0 -0.093835 265.795 0
          -0.0408263 255.528 0 -0.0191617 250.563 0 -0.00867797 248.212 0 -0.0028846 247.286 0
          0.000569354 247.195 0 0.00259274 247.602 0 0.00358873 248.274 0 0.00383732 249.043 0
          0.00358891 249.792 0 0.00308747 250.45 0 0.00232413 250.992 0 0.00184361 251.342 0
          -0.52422 46.5867 0 -0.465343 100.385 0 -0.309403 104.478 0 -0.15624 98.62 0
          -0.0743527 94.3034 0 -0.0357131 91.8933 0 -0.0159938 90.6678 0 -0.00496484 90.1373 0
          0.00153973 90.0201 0 0.00526844 90.1475 0 0.00703783 90.4063 0 0.00740662 90.7159 0
          0.0068643 91.023 0 0.00585798 91.2966 0 0.00435764 91.5225 0 0.00342246 91.6663 0
          -0.197828 11.6548 0 -0.26999 32.1779 0 -0.269234 42.779 0 -0.177972 43.699 0
          -0.0964532 42.0083 0 -0.0492267 40.5553 0 -0.0231991 39.6506 0 -0.00824069 39.1526 0
          0.000653907 38.9189 0 0.00578664 38.8505 0 0.00828928 38.8791 0 0.00893755 38.9573 0
          0.00839046 39.0539 0 0.00721737 39.1503 0 0.00538187 39.2353 0 0.00422315 39.2907 0
          -0.0275056 3.14931 0 -0.105007 11.6536 0 -0.176019 20.4792 0 -0.165163 24.6483 0
          -0.110748 25.0488 0 -0.0630085 24.3637 0 -0.0322343 23.692 0 -0.0134368 23.2291 0
          -0.00195753 22.9488 0 0.00480847 22.7965 0 0.00827445 22.7277 0 0.00943036 22.7093 0
          0.00909888 22.7183 0 0.00795823 22.7403 0 0.00598333 22.7656 0 0.00470493 22.7834 0
          0.0540181 0.85914 0 0.0108986 3.78807 0 -0.058611 8.64861 0 -0.103907 13.2359 0
          -0.101066 15.6061 0 -0.0712171 16.1595 0 -0.0415898 15.9799 0 -0.0202881 15.6743 0
          -0.00635674 15.4185 0 0.00220368 15.2324 0 0.00687534 15.106 0 0.00878538 15.0232 0
          0.00889381 14.969 0 0.00798457 14.9332 0 0.00608045 14.909 0 0.00480015 14.8945 0
          0.0871045 0.233046 0 0.0717492 1.06266 0 0.0383677 2.88092 0 -0.00728663 5.62826 0
          -0.0444066 8.33143 0 -0.0545256 10.1318 0 -0.043245 10.9607 0 -0.026176 11.1641 0
          -0.0119846 11.0896 0 -0.00228331 10.9375 0 0.00352787 10.7843 0 0.00632201 10.646 0
          0.00705644 10.5224 0 0.00659744 10.4142 0 0.0051036 10.3229 0 0.0040442 10.2629 0
          0.09903 0.0554508 0 0.0950171 0.259265 0 0.0864304 0.734183 0 0.0692463 1.67205 0
          0.0420034 3.09894 0 0.0123116 4.69464 0 -0.0087947 6.05898 0 -0.0161958 6.99769 0
          -0.013557 7.50891 0 -0.00749493 7.67805 0 -0.00238353 7.61587 0 0.000467044 7.42917 0
          0.00153115 7.19958 0 0.00164733 6.97635 0 0.001272 6.7836 0 0.000984399 6.65808 0
          0.102479 0.0090975 0 0.101936 0.0460183 0 0.101202 0.132187 0 0.0978874 0.308803 0
          0.0900251 0.641704 0 0.0771241 1.1631 0 0.0591842 1.7947 0 0.0383106 2.37242 0
          0.0182751 2.76435 0 0.0024734 2.93871 0 -0.00754147 2.94169 0 -0.0121926 2.84695 0
          -0.0130827 2.71648 0 -0.0119033 2.58697 0 -0.00905164 2.47541 0 -0.00712089 2.40332 0
          0.102479 -0.0090975 0 0.101936 -0.0460183 0 0.101202 -0.132187 0 0.0978874 -0.308803 0
          0.0900251 -0.641704 0 0.0771241 -1.1631 0 0.0591842 -1.7947 0 0.0383106 -2.37242 0
          0.0182751 -2.76435 0 0.0024734 -2.93871 0 -0.00754147 -2.94169 0 -0.0121926 -2.84695 0
          -0.0130827 -2.71648 0 -0.0119033 -2.58697 0 -0.00905164 -2.47541 0 -0.00712089 -2.40332 0
          0.09903 -0.0554508 0 0.0950171 -0.259265 0 0.0864304 -0.734183 0 0.0692463 -1.67205 0
          0.0420034 -3.09894 0 0.0123116 -4.69464 0 -0.0087947 -6.05898 0 -0.0161958 -6.99769 0
          -0.013557 -7.50891 0 -0.00749493 -7.67805 0 -0.00238353 -7.61587 0 0.000467044 -7.42917 0
          0.00153115 -7.19958 0 0.00164733 -6.97635 0 0.001272 -6.7836 0 0.000984399 -6.65808 0
          0.0871045 -0.233046 0 0.0717492 -1.06266 0 0.0383677 -2.88092 0 -0.00728663 -5.62826 0
          -0.0444066 -8.33143 0 -0.0545256 -10.1318 0 -0.043245 -10.9607 0 -0.026176 -11.1641 0
          -0.0119846 -11.0896 0 -0.00228331 -10.9375 0 0.00352787 -10.7843 0 0.00632201 -10.646 0
          0.00705644 -10.5224 0 0.00659744 -10.4142 0 0.0051036 -10.3229 0 0.0040442 -10.2629 0
          0.0540181 -0.85914 0 0.0108986 -3.78807 0 -0.058611 -8.64861 0 -0.103907 -13.2359 0
          -0.101066 -15.6061 0 -0.0712171 -16.1595 0 -0.0415898 -15.9799 0 -0.0202881 -15.6743 0
          -0.00635674 -15.4185 0 0.00220368 -15.2324 0 0.00687534 -15.106 0 0.00878538 -15.0232 0
          0.00889381 -14.969 0 0.00798457 -14.9332 0 0.00608045 -14.909 0 0.00480015 -14.8945 0
          -0.0275056 -3.14931 0 -0.105007 -11.6536 0 -0.176019 -20.4792 0 -0.165163 -24.6483 0
          -0.110748 -25.0488 0 -0.0630085 -24.3637 0 -0.0322343 -23.692 0 -0.0134368 -23.2291 0
          -0.00195753 -22.9488 0 0.00480847 -22.7965 0 0.00827445 -22.7277 0 0.00943036 -22.7093 0
          0.00909888 -22.7183 0 0.00795823 -22.7403 0 0.00598333 -22.7656 0 0.00470493 -22.7834 0
          -0.197828 -11.6548 0 -0.26999 -32.1779 0 -0.269234 -42.779 0 -0.177972 -43.699 0
          -0.0964532 -42.0083 0 -0.0492267 -40.5553 0 -0.0231991 -39.6506 0 -0.00824069 -39.1526 0
          0.000653907 -38.9189 0 0.00578664 -38.8505 0 0.00828928 -38.8791 0 0.00893755 -38.9573 0
          0.00839046 -39.0539 0 0.00721737 -39.1503 0 0.00538187 -39.2353 0 0.00422315 -39.2907 0
          -0.52422 -46.5867 0 -0.465343 -100.385 0 -0.309403 -104.478 0 -0.15624 -98.62 0
          -0.0743527 -94.3034 0 -0.0357131 -91.8933 0 -0.0159938 -90.6678 0 -0.00496484 -90.1373 0
          0.00153973 -90.0201 0 0.00526844 -90.1475 0 0.00703783 -90.4063 0 0.00740662 -90.7159 0
          0.0068643 -91.023 0 0.00585798 -91.2966 0 0.00435764 -91.5225 0 0.00342246 -91.6663 0
          -1.30468 -382.867 0 -0.748722 -329.18 0 -0.254634 -287.536 0 -0.093835 -265.795 0
          -0.0408263 -255.528 0 -0.0191617 -250.563 0 -0.00867797 -248.212 0 -0.0028846 -247.286 0
          0.000569354 -247.195 0 0.00259274 -247.602 0 0.00358873 -248.274 0 0.00383732 -249.043 0
          0.00358891 -249.792 0 0.00308747 -250.45 0 0.00232413 -250.992 0 0.00184361 -251.342 0
        </DataArray>
        <DataArray type="Float32" Name="dv_y/dx_" NumberOfComponents="3" format="ascii">
          0.00108486 1.20043 0 -0.00213326 0.549086 0 -0.000704155 0.229556 0 -0.000219273 0.100565 0
          -8.51431e-05 0.0474568 0 -3.92716e-05 0.0230638 0 -2.09334e-05 0.0103404 0 -1.23363e-05 0.00303389 0
          -7.49866e-06 -0.0014263 0 -4.12082e-06 -0.0040396 0 -1.59852e-06 -0.00525487 0 1.71372e-07 -0.00546848 0
          1.25562e-06 -0.00501792 0 1.62441e-06 -0.00422731 0 2.75964e-06 -0.0034214 0 3.89683e-06 -0.00155624 0
          0.00357369 0.590621 0 -0.00473918 0.464724 0 -0.00218938 0.272218 0 -0.000888886 0.135769 0
          -0.000378308 0.0674697 0 -0.000181177 0.0335239 0 -9.77728e-05 0.0152569 0 -5.74371e-05 0.00468675 0
          -3.4528e-05 -0.00173418 0 -1.86885e-05 -0.00547488 0 -6.97485e-06 -0.00721383 0 1.15661e-06 -0.00753327 0
          6.05858e-06 -0.00692702 0 7.79314e-06 -0.00584788 0 1.30383e-05 -0.00471026 0 1.82089e-05 -0.00211846 0
          0.00620894 0.150311 0 -0.00476632 0.288995 0 -0.00342446 0.262784 0 -0.00191244 0.163422 0
          -0.000930666 0.0897619 0 -0.000471048 0.0470049 0 -0.000259404 0.0225371 0 -0.000152845 0.00803919 0
          -9.15307e-05 -0.000827375 0 -4.94351e-05 -0.00603271 0 -1.86204e-05 -0.00853405 0 2.54321e-06 -0.00913804 0
          1.5193e-05 -0.00851804 0 1.9956e-05 -0.0072618 0 3.36003e-05 -0.00586129 0 4.67628e-05 -0.00261903 0
          0.00803477 -0.00875885 0 -0.00343704 0.10553 0 -0.00364319 0.174562 0 -0.00289202 0.154382 0
          -0.00172611 0.102877 0 -0.000959463 0.0597838 0 -0.000548893 0.0312238 0 -0.000327936 0.013197 0
          -0.000197444 0.00187801 0 -0.000107911 -0.00491674 0 -4.29264e-05 -0.00838 0 1.34188e-06 -0.00949411 0
          2.77804e-05 -0.0090995 0 3.85513e-05 -0.00789699 0 6.67894e-05 -0.00642581 0 9.32826e-05 -0.00286364 0
          0.00848956 -0.0691813 0 -0.001795 -0.0149988 0 -0.00263265 0.0532749 0 -0.00307434 0.0924615 0
          -0.00246394 0.0884926 0 -0.00163242 0.0644559 0 -0.0010145 0.0390796 0 -0.00062849 0.0195352 0
          -0.000385124 0.00629376 0 -0.0002157 -0.00205537 0 -9.28119e-05 -0.00666364 0 -9.11871e-06 -0.0084977 0
          4.10797e-05 -0.00854037 0 6.32921e-05 -0.00760046 0 0.000115182 -0.00625204 0 0.000162236 -0.00278096 0
          0.00758097 -0.0921913 0 -0.000658307 -0.0718641 0 -0.00120474 -0.0404649 0 -0.00209287 0.00128535 0
          -0.0023616 0.0300048 0 -0.00208072 0.0381021 0 -0.00156822 0.03255 0 -0.0010719 0.0217761 0
          -0.000687369 0.0109673 0 -0.000401936 0.00249837 0 -0.000189114 -0.00281409 0 -4.12442e-05 -0.00522051 0
          4.81403e-05 -0.00573384 0 9.04771e-05 -0.00525168 0 0.000176152 -0.00433612 0 0.000250812 -0.00191089 0
          0.00544556 -0.100472 0 -0.000151744 -0.0934471 0 -0.000308821 -0.0859361 0 -0.000835638 -0.0670966 0
          -0.00129434 -0.0426548 0 -0.00155156 -0.0209244 0 -0.00153315 -0.00650493 0 -0.00131413 0.000550757 0
          -0.000997544 0.00296927 0 -0.000653511 0.00336155 0 -0.000338028 0.00314251 0 -0.000101874 0.00284598 0
          4.00898e-05 0.00250647 0 0.000107695 0.00211521 0 0.000221314 0.00172557 0 0.000316327 0.000782445 0
          0.00203948 -0.102786 0 -1.1805e-05 -0.0998675 0 -3.27808e-05 -0.0998763 0 -0.000167915 -0.0937905 0
          -0.00030807 -0.0820234 0 -0.000472935 -0.0652841 0 -0.000613095 -0.0460081 0 -0.00065053 -0.0271031 0
          -0.000562357 -0.0110573 0 -0.000394231 0.000647122 0 -0.000212044 0.00758176 0 -6.95326e-05 0.0104327 0
          1.56388e-05 0.010631 0 5.57463e-05 0.00944134 0 0.000116876 0.00772345 0 0.00016692 0.00342504 0
          -0.00203948 -0.102786 0 1.1805e-05 -0.0998675 0 3.27808e-05 -0.0998763 0 0.000167915 -0.0937905 0
          0.00030807 -0.0820234 0 0.000472935 -0.0652841 0 0.000613095 -0.0460081 0 0.00065053 -0.0271031 0
          0.000562357 -0.0110573 0 0.000394231 0.000647122 0 0.000212044 0.00758176 0 6.95326e-05 0.0104327 0
          -1.56388e-05 0.010631 0 -5.57463e-05 0.00944134 0 -0.000116876 0.00772345 0 -0.00016692 0.00342504 0
          -0.00544556 -0.100472 0 0.000151744 -0.0934471 0 0.000308821 -0.0859361 0 0.000835638 -0.0670966 0
          0.00129434 -0.0426548 0 0.00155156 -0.0209244 0 0.00153315 -0.00650493 0 0.00131413 0.000550757 0
          0.000997544 0.00296927 0 0.000653511 0.00336155 0 0.000338028 0.00314251 0 0.000101874 0.00284598 0
          -4.00898e-05 0.00250647 0 -0.000107695 0.00211521 0 -0.000221314 0.00172557 0 -0.000316327 0.000782445 0
          -0.00758097 -0.0921913 0 0.000658307 -0.0718641 0 0.00120474 -0.0404649 0 0.00209287 0.00128535 0
          0.0023616 0.0300048 0 0.00208072 0.0381021 0 0.00156822 0.03255 0 0.0010719 0.0217761 0
          0.000687369 0.0109673 0 0.000401936 0.00249837 0 0.000189114 -0.00281409 0 4.12442e-05 -0.00522051 0
          -4.81403e-05 -0.00573384 0 -9.04771e-05 -0.00525168 0 -0.000176152 -0.00433612 0 -0.000250812 -0.00191089 0
          -0.00848956 -0.0691813 0 0.001795 -0.0149988 0 0.00263265 0.0532749 0 0.00307434 0.0924615 0
          0.00246394 0.0884926 0 0.00163242 0.0644559 0 0.0010145 0.0390796 0 0.00062849 0.0195352 0
          0.000385124 0.00629376 0 0.0002157 -0.00205537 0 9.28119e-05 -0.00666364 0 9.11871e-06 -0.0084977 0
          -4.10797e-05 -0.00854037 0 -6.32921e-05 -0.00760046 0 -0.000115182 -0.00625204 0 -0.000162236 -0.00278096 0
          -0.00803477 -0.00875885 0 0.00343704 0.10553 0 0.00364319 0.174562 0 0.00289202 0.154382 0
          0.00172611 0.102877 0 0.000959463 0.0597838 0 0.000548893 0.0312238 0 0.000327936 0.013197 0
          0.000197444 0.00187801 0 0.000107911 -0.00491674 0 4.29264e-05 -0.00838 0 -1.34188e-06 -0.00949411 0
          -2.77804e-05 -0.0090995 0 -3.85513e-05 -0.00789699 0 -6.67894e-05 -0.00642581 0 -9.32826e-05 -0.00286364 0
          -0.00620894 0.150311 0 0.00476632 0.288995 0 0.00342446 0.262784 0 0.00191244 0.163422 0
          0.000930666 0.0897619 0 0.000471048 0.0470049 0 0.000259404 0.0225371 0 0.000152845 0.00803919 0
          9.15307e-05 -0.000827375 0 4.94351e-05 -0.00603271 0 1.86204e-05 -0.00853405 0 -2.54321e-06 -0.00913804 0
          -1.5193e-05 -0.00851804 0 -1.9956e-05 -0.0072618 0 -3.36003e-05 -0.00586129 0 -4.67628e-05 -0.00261903 0
          -0.00357369 0.590621 0 0.00473918 0.464724 0 0.00218938 0.272218 0 0.000888886 0.135769 0
          0.000378308 0.0674697 0 0.000181177 0.0335239 0 9.77728e-05 0.0152569 0 5.74371e-05 0.00468675 0
          3.4528e-05 -0.00173418 0 1.86885e-05 -0.00547488 0 6.97485e-06 -0.00721383 0 -1.15661e-06 -0.00753327 0
          -6.05858e-06 -0.00692702 0 -7.79314e-06 -0.00584788 0 -1.30383e-05 -0.00471026 0 -1.82089e-05 -0.00211846 0
          -0.00108486 1.20043 0 0.00213326 0.549086 0 0.000704155 0.229556 0 0.000219273 0.100565 0
          8.51431e-05 0.0474568 0 3.92716e-05 0.0230638 0 2.09334e-05 0.0103404 0 1.23363e-05 0.00303389 0
          7.49866e-06 -0.0014263 0 4.12082e-06 -0.0040396 0 1.59852e-06 -0.00525487 0 -1.71372e-07 -0.00546848 0
          -1.25562e-06 -0.00501792 0 -1.62441e-06 -0.00422731 0 -2.75964e-06 -0.0034214 0 -3.89683e-06 -0.00155624 0
        </DataArray>
        <DataArray type="Float32" Name="velocity_Air (m/s)" NumberOfComponents="3" format="ascii">
          1.97698 0.00300357 0 1.27686 0.00101706 0 1.04108 0.000336988 0 0.958566 0.000136864 0
          0.923783 6.28975e-05 0 0.907533 3.04363e-05 0 0.89983 1.38088e-05 0 0.896684 4.27093e-06 0
          0.896223 -1.60966e-06 0 0.897393 -5.1005e-06 0 0.899461 -6.7593e-06 0 0.901876 -7.09852e-06 0
          0.904254 -6.54732e-06 0 0.906361 -5.53433e-06 0 0.908114 -4.52412e-06 0 0.909268 -2.08707e-06 0
          2.33613 0.00732465 0 2.00854 0.00335034 0 1.75445 0.00140067 0 1.62179 0.000613615 0
          1.55915 0.000289568 0 1.52885 0.000140731 0 1.51451 6.30987e-05 0 1.50886 1.852e-05 0
          1.5083 -8.69057e-06 0 1.51078 -2.46318e-05 0 1.51488 -3.20434e-05 0 1.51957 -3.33456e-05 0
          1.52413 -3.05998e-05 0 1.52814 -2.57848e-05 0 1.53145 -2.08793e-05 0 1.53359 -9.50004e-06 0
          2.45854 0.00910878 0 2.31454 0.00582088 0 2.12106 0.00315088 0 1.97799 0.0015403 0
          1.89859 0.00076033 0 1.85743 0.000376975 0 1.83706 0.000171525 0 1.82843 5.27299e-05 0
          1.82676 -1.95156e-05 0 1.82924 -6.16643e-05 0 1.83398 -8.12883e-05 0 1.8396 -8.49215e-05 0
          1.84515 -7.81014e-05 0 1.85008 -6.59404e-05 0 1.85416 -5.31863e-05 0 1.8568 -2.39763e-05 0
          2.50479 0.0094999 0 2.47421 0.00753259 0 2.37353 0.0052036 0 2.25419 0.00297861 0
          2.16708 0.00158858 0 2.11575 0.000820977 0 2.08832 0.000389256 0 2.07546 0.000134874 0
          2.07152 -2.06408e-05 0 2.07301 -0.000111897 0 2.07753 -0.00015549 0 2.08335 -0.000165515 0
          2.08931 -0.000153783 0 2.09472 -0.000130784 0 2.09925 -0.000105623 0 2.10219 -4.73671e-05 0
          2.52235 0.00893132 0 2.55064 0.00795896 0 2.53597 0.00668757 0 2.47738 0.00466814 0
          2.40609 0.00284465 0 2.35105 0.00158822 0 2.31707 0.000804135 0 2.29906 0.000320116 0
          2.29171 1.85549e-05 0 2.29111 -0.00016124 0 2.29446 -0.000251008 0 2.2997 -0.000277187 0
          2.30544 -0.000262346 0 2.31082 -0.000225805 0 2.31541 -0.000183246 0 2.31841 -8.19333e-05 0
          2.52916 0.0075376 0 2.58166 0.00710716 0 2.61885 0.00671472 0 2.62962 0.00560124 0
          2.60974 0.00409863 0 2.57411 0.00264924 0 2.54158 0.00149773 0 2.52006 0.000688983 0
          2.50886 0.00015789 0 2.50508 -0.000170169 0 2.50601 -0.000344451 0 2.50948 -0.00040647 0
          2.51391 -0.000395917 0 2.5183 -0.00034623 0 2.52215 -0.000282809 0 2.52468 -0.000126172 0
          2.5316 0.00527037 0 2.59284 0.00510521 0 2.65038 0.00508069 0 2.70088 0.00471919 0
          2.73693 0.00403615 0 2.75338 0.00310126 0 2.75232 0.0020967 0 2.74239 0.00118484 0
          2.73208 0.000454061 0 2.72544 -6.20334e-05 0 2.72271 -0.000362752 0 2.72247 -0.000484477 0
          2.7233 -0.000490001 0 2.72438 -0.000434286 0 2.72536 -0.000355347 0 2.72597 -0.000157767 0
          2.53224 0.0019519 0 2.59607 0.00191201 0 2.65966 0.00193714 0 2.72258 0.00187104 0
          2.78202 0.00172725 0 2.83511 0.00148595 0 2.87843 0.00113608 0 2.90909 0.000719584 0
          2.92632 0.000322932 0 2.93193 1.66601e-05 0 2.92941 -0.000169823 0 2.92251 -0.000248354 0
          2.91417 -0.000256696 0 2.90616 -0.000228766 0 2.8993 -0.000186992 0 2.89485 -8.2724e-05 0
          2.53224 -0.0019519 0 2.59607 -0.00191201 0 2.65966 -0.00193714 0 2.72258 -0.00187104 0
          2.78202 -0.00172725 0 2.83511 -0.00148595 0 2.87843 -0.00113608 0 2.90909 -0.000719584 0
          2.92632 -0.000322932 0 2.93193 -1.66601e-05 0 2.92941 0.000169823 0 2.92251 0.000248354 0
          2.91417 0.000256696 0 2.90616 0.000228766 0 2.8993 0.000186992 0 2.89485 8.2724e-05 0
          2.5316 -0.00527037 0 2.59284 -0.00510521 0 2.65038 -0.00508069 0 2.70088 -0.00471919 0
          2.73693 -0.00403615 0 2.75338 -0.00310126 0 2.75232 -0.0020967 0 2.74239 -0.00118484 0
          2.73208 -0.000454061 0 2.72544 6.20334e-05 0 2.72271 0.000362752 0 2.72247 0.000484477 0
          2.7233 0.000490001 0 2.72438 0.000434286 0 2.72536 0.000355347 0 2.72597 0.000157767 0
          2.52916 -0.0075376 0 2.58166 -0.00710716 0 2.61885 -0.00671472 0 2.62962 -0.00560124 0
          2.60974 -0.00409863 0 2.57411 -0.00264924 0 2.54158 -0.00149773 0 2.52006 -0.000688983 0
          2.50886 -0.00015789 0 2.50508 0.000170169 0 2.50601 0.000344451 0 2.50948 0.00040647 0
          2.51391 0.000395917 0 2.5183 0.00034623 0 2.52215 0.000282809 0 2.52468 0.000126172 0
          2.52235 -0.00893132 0 2.55064 -0.00795896 0 2.53597 -0.00668757 0 2.47738 -0.00466814 0
          2.40609 -0.00284465 0 2.35105 -0.00158822 0 2.31707 -0.000804135 0 2.29906 -0.000320116 0
          2.29171 -1.85549e-05 0 2.29111 0.00016124 0 2.29446 0.000251008 0 2.2997 0.000277187 0
          2.30544 0.000262346 0 2.31082 0.000225805 0 2.31541 0.000183246 0 2.31841 8.19333e-05 0
          2.50479 -0.0094999 0 2.47421 -0.00753259 0 2.37353 -0.0052036 0 2.25419 -0.00297861 0
          2.16708 -0.00158858 0 2.11575 -0.000820977 0 2.08832 -0.000389256 0 2.07546 -0.000134874 0
          2.07152 2.06408e-05 0 2.07301 0.000111897 0 2.07753 0.00015549 0 2.08335 0.000165515 0
          2.08931 0.000153783 0 2.09472 0.000130784 0 2.09925 0.000105623 0 2.10219 4.73671e-05 0
          2.45854 -0.00910878 0 2.31454 -0.00582088 0 2.12106 -0.00315088 0 1.97799 -0.0015403 0
          1.89859 -0.00076033 0 1.85743 -0.000376975 0 1.83706 -0.000171525 0 1.82843 -5.27299e-05 0
          1.82676 1.95156e-05 0 1.82924 6.16643e-05 0 1.83398 8.12883e-05 0 1.8396 8.49215e-05 0
          1.84515 7.81014e-05 0 1.85008 6.59404e-05 0 1.85416 5.31863e-05 0 1.8568 2.39763e-05 0
          2.33613 -0.00732465 0 2.00854 -0.00335034 0 1.75445 -0.00140067 0 1.62179 -0.000613615 0
          1.55915 -0.000289568 0 1.52885 -0.000140731 0 1.51451 -6.30987e-05 0 1.50886 -1.852e-05 0
          1.5083 8.69057e-06 0 1.51078 2.46318e-05 0 1.51488 3.20434e-05 0 1.51957 3.33456e-05 0
          1.52413 3.05998e-05 0 1.52814 2.57848e-05 0 1.53145 2.08793e-05 0 1.53359 9.50004e-06 0
          1.97698 -0.00300357 0 1.27686 -0.00101706 0 1.04108 -0.000336988 0 0.958566 -0.000136864 0
          0.923783 -6.28975e-05 0 0.907533 -3.04363e-05 0 0.89983 -1.38088e-05 0 0.896684 -4.27093e-06 0
          0.896223 1.60966e-06 0 0.897393 5.1005e-06 0 0.899461 6.7593e-06 0 0.901876 7.09852e-06 0
          0.904254 6.54732e-06 0 0.906361 5.53433e-06 0 0.908114 4.52412e-06 0 0.909268 2.08707e-06 0
        </DataArray>
        <DataArray type="Float32" Name="process rank" NumberOfComponents="1" format="ascii">
          0 0 0 0 0 0 0 0 0 0 0 0
          0 0 0 0 0 0 0 0 0 0 0 0
          0 0 0 0 0 0 0 0 0 0 0 0
          0 0 0 0 0 0 0 0 0 0 0 0
          0 0 0 0 0 0 0 0 0 0 0 0
          0 0 0 0 0 0 0 0 0 0 0 0
          0 0 0 0 0 0 0 0 0 0 0 0
          0 0 0 0 0 0 0 0 0 0 0 0
          0 0 0 0 0 0 0 0 0 0 0 0
          0 0 0 0 0 0 0 0 0 0 0 0
          0 0 0 0 0 0 0 0 0 0 0 0
          0 0 0 0 0 0 0 0 0 0 0 0
          0 0 0 0 0 0 0 0 0 0 0 0
          0 0 0 0 0 0 0 0 0 0 0 0
          0 0 0 0 0 0 0 0 0 0 0 0
          0 0 0 0 0 0 0 0 0 0 0 0
          0 0 0 0 0 0 0 0 0 0 0 0
          0 0 0 0 0 0 0 0 0 0 0 0
          0 0 0 0 0 0 0 0 0 0 0 0
          0 0 0 0 0 0 0 0 0 0 0 0
          0 0 0 0 0 0 0 0 0 0 0 0
          0 0 0 0
        </DataArray>
      </CellData>
      <Points>
        <DataArray type="Float32" Name="Coordinates" NumberOfComponents="3" format="ascii">
          0 0 0 0.625 0 0 0 0.00358921 0 0.625 0.00358921 0
          1.25 0 0 1.25 0.00358921 0 1.875 0 0 1.875 0.00358921 0
          2.5 0 0 2.5 0.00358921 0 3.125 0 0 3.125 0.00358921 0
          3.75 0 0 3.75 0.00358921 0 4.375 0 0 4.375 0.00358921 0
          5 0 0 5 0.00358921 0 5.625 0 0 5.625 0.00358921 0
          6.25 0 0 6.25 0.00358921 0 6.875 0 0 6.875 0.00358921 0
          7.5 0 0 7.5 0.00358921 0 8.125 0 0 8.125 0.00358921 0
          8.75 0 0 8.75 0.00358921 0 9.375 0 0 9.375 0.00358921 0
          10 0 0 10 0.00358921 0 0 0.00861411 0 0.625 0.00861411 0
          1.25 0.00861411 0 1.875 0.00861411 0 2.5 0.00861411 0 3.125 0.00861411 0
          3.75 0.00861411 0 4.375 0.00861411 0 5 0.00861411 0 5.625 0.00861411 0
          6.25 0.00861411 0 6.875 0.00861411 0 7.5 0.00861411 0 8.125 0.00861411 0
          8.75 0.00861411 0 9.375 0.00861411 0 10 0.00861411 0 0 0.015649 0
          0.625 0.015649 0 1.25 0.015649 0 1.875 0.015649 0 2.5 0.015649 0
          3.125 0.015649 0 3.75 0.015649 0 4.375 0.015649 0 5 0.015649 0
          5.625 0.015649 0 6.25 0.015649 0 6.875 0.015649 0 7.5 0.015649 0
          8.125 0.015649 0 8.75 0.015649 0 9.375 0.015649 0 10 0.015649 0
          0 0.0254978 0 0.625 0.0254978 0 1.25 0.0254978 0 1.875 0.0254978 0
          2.5 0.0254978 0 3.125 0.0254978 0 3.75 0.0254978 0 4.375 0.0254978 0
          5 0.0254978 0 5.625 0.0254978 0 6.25 0.0254978 0 6.875 0.0254978 0
          7.5 0.0254978 0 8.125 0.0254978 0 8.75 0.0254978 0 9.375 0.0254978 0
          10 0.0254978 0 0 0.0392861 0 0.625 0.0392861 0 1.25 0.0392861 0
          1.875 0.0392861 0 2.5 0.0392861 0 3.125 0.0392861 0 3.75 0.0392861 0
          4.375 0.0392861 0 5 0.0392861 0 5.625 0.0392861 0 6.25 0.0392861 0
          6.875 0.0392861 0 7.5 0.0392861 0 8.125 0.0392861 0 8.75 0.0392861 0
          9.375 0.0392861 0 10 0.0392861 0 0 0.0585897 0 0.625 0.0585897 0
          1.25 0.0585897 0 1.875 0.0585897 0 2.5 0.0585897 0 3.125 0.0585897 0
          3.75 0.0585897 0 4.375 0.0585897 0 5 0.0585897 0 5.625 0.0585897 0
          6.25 0.0585897 0 6.875 0.0585897 0 7.5 0.0585897 0 8.125 0.0585897 0
          8.75 0.0585897 0 9.375 0.0585897 0 10 0.0585897 0 0 0.0856148 0
          0.625 0.0856148 0 1.25 0.0856148 0 1.875 0.0856148 0 2.5 0.0856148 0
          3.125 0.0856148 0 3.75 0.0856148 0 4.375 0.0856148 0 5 0.0856148 0
          5.625 0.0856148 0 6.25 0.0856148 0 6.875 0.0856148 0 7.5 0.0856148 0
          8.125 0.0856148 0 8.75 0.0856148 0 9.375 0.0856148 0 10 0.0856148 0
          0 0.12345 0 0.625 0.12345 0 1.25 0.12345 0 1.875 0.12345 0
          2.5 0.12345 0 3.125 0.12345 0 3.75 0.12345 0 4.375 0.12345 0
          5 0.12345 0 5.625 0.12345 0 6.25 0.12345 0 6.875 0.12345 0
          7.5 0.12345 0 8.125 0.12345 0 8.75 0.12345 0 9.375 0.12345 0
          10 0.12345 0 0 0.161285 0 0.625 0.161285 0 1.25 0.161285 0
          1.875 0.161285 0 2.5 0.161285 0 3.125 0.161285 0 3.75 0.161285 0
          4.375 0.161285 0 5 0.161285 0 5.625 0.161285 0 6.25 0.161285 0
          6.875 0.161285 0 7.5 0.161285 0 8.125 0.161285 0 8.75 0.161285 0
          9.375 0.161285 0 10 0.161285 0 0 0.18831 0 0.625 0.18831 0
          1.25 0.18831 0 1.875 0.18831 0 2.5 0.18831 0 3.125 0.18831 0
          3.75 0.18831 0 4.375 0.18831 0 5 0.18831 0 5.625 0.18831 0
          6.25 0.18831 0 6.875 0.18831 0 7.5 0.18831 0 8.125 0.18831 0
          8.75 0.18831 0 9.375 0.18831 0 10 0.18831 0 0 0.207614 0
          0.625 0.207614 0 1.25 0.207614 0 1.875 0.207614 0 2.5 0.207614 0
          3.125 0.207614 0 3.75 0.207614 0 4.375 0.207614 0 5 0.207614 0
          5.625 0.207614 0 6.25 0.207614 0 6.875 0.207614 0 7.5 0.207614 0
          8.125 0.207614 0 8.75 0.207614 0 9.375 0.207614 0 10 0.207614 0
          0 0.221402 0 0.625 0.221402 0 1.25 0.221402 0 1.875 0.221402 0
          2.5 0.221402 0 3.125 0.221402 0 3.75 0.221402 0 4.375 0.221402 0
          5 0.221402 0 5.625 0.221402 0 6.25 0.221402 0 6.875 0.221402 0
          7.5 0.221402 0 8.125 0.221402 0 8.75 0.221402 0 9.375 0.221402 0
          10 0.221402 0 0 0.231251 0 0.625 0.231251 0 1.25 0.231251 0
          1.875 0.231251 0 2.5 0.231251 0 3.125 0.231251 0 3.75 0.231251 0
          4.375 0.231251 0 5 0.231251 0 5.625 0.231251 0 6.25 0.231251 0
          6.875 0.231251 0 7.5 0.231251 0 8.125 0.231251 0 8.75 0.231251 0
          9.375 0.231251 0 10 0.231251 0 0 0.238286 0 0.625 0.238286 0
          1.25 0.238286 0 1.875 0.238286 0 2.5 0.238286 0 3.125 0.238286 0
          3.75 0.238286 0 4.375 0.238286 0 5 0.238286 0 5.625 0.238286 0
          6.25 0.238286 0 6.875 0.238286 0 7.5 0.238286 0 8.125 0.238286 0
          8.75 0.238286 0 9.375 0.238286 0 10 0.238286 0 0 0.243311 0
          0.625 0.243311 0 1.25 0.243311 0 1.875 0.243311 0 2.5 0.243311 0
          3.125 0.243311 0 3.75 0.243311 0 4.375 0.243311 0 5 0.243311 0
          5.625 0.243311 0 6.25 0.243311 0 6.875 0.243311 0 7.5 0.243311 0
          8.125 0.243311 0 8.75 0.243311 0 9.375 0.243311 0 10 0.243311 0
          0 0.2469 0 0.625 0.2469 0 1.25 0.2469 0 1.875 0.2469 0
          2.5 0.2469 0 3.125 0.2469 0 3.75 0.2469 0 4.375 0.2469 0
          5 0.2469 0 5.625 0.2469 0 6.25 0.2469 0 6.875 0.2469 0
          7.5 0.2469 0 8.125 0.2469 0 8.75 0.2469 0 9.375 0.2469 0
          10 0.2469 0
        </DataArray>
      </Points>
      <Cells>
        <DataArray type="Int32" Name="connectivity" NumberOfComponents="1" format="ascii">
          0 1 3 2 1 4 5 3 4 6 7 5
          6 8 9 7 8 10 11 9 10 12 13 11
          12 14 15 13 14 16 17 15 16 18 19 17
          18 20 21 19 20 22 23 21 22 24 25 23
          24 26 27 25 26 28 29 27 28 30 31 29
          30 32 33 31 2 3 35 34 3 5 36 35
          5 7 37 36 7 9 38 37 9 11 39 38
          11 13 40 39 13 15 41 40 15 17 42 41
          17 19 43 42 19 21 44 43 21 23 45 44
          23 25 46 45 25 27 47 46 27 29 48 47
          29 31 49 48 31 33 50 49 34 35 52 51
          35 36 53 52 36 37 54 53 37 38 55 54
          38 39 56 55 39 40 57 56 40 41 58 57
          41 42 59 58 42 43 60 59 43 44 61 60
          44 45 62 61 45 46 63 62 46 47 64 63
          47 48 65 64 48 49 66 65 49 50 67 66
          51 52 69 68 52 53 70 69 53 54 71 70
          54 55 72 71 55 56 73 72 56 57 74 73
          57 58 75 74 58 59 76 75 59 60 77 76
          60 61 78 77 61 62 79 78 62 63 80 79
          63 64 81 80 64 65 82 81 65 66 83 82
          66 67 84 83 68 69 86 85 69 70 87 86
          70 71 88 87 71 72 89 88 72 73 90 89
          73 74 91 90 74 75 92 91 75 76 93 92
          76 77 94 93 77 78 95 94 78 79 96 95
          79 80 97 96 80 81 98 97 81 82 99 98
          82 83 100 99 83 84 101 100 85 86 103 102
          86 87 104 103 87 88 105 104 88 89 106 105
          89 90 107 106 90 91 108 107 91 92 109 108
          92 93 110 109 93 94 111 110 94 95 112 111
          95 96 113 112 96 97 114 113 97 98 115 114
          98 99 116 115 99 100 117 116 100 101 118 117
          102 103 120 119 103 104 121 120 104 105 122 121
          105 106 123 122 106 107 124 123 107 108 125 124
          108 109 126 125 109 110 127 126 110 111 128 127
          111 112 129 128 112 113 130 129 113 114 131 130
          114 115 132 131 115 116 133 132 116 117 134 133
          117 118 135 134 119 120 137 136 120 121 138 137
          121 122 139 138 122 123 140 139 123 124 141 140
          124 125 142 141 125 126 143 142 126 127 144 143
          127 128 145 144 128 129 146 145 129 130 147 146
          130 131 148 147 131 132 149 148 132 133 150 149
          133 134 151 150 134 135 152 151 136 137 154 153
          137 138 155 154 138 139 156 155 139 140 157 156
          140 141 158 157 141 142 159 158 142 143 160 159
          143 144 161 160 144 145 162 161 145 146 163 162
          146 147 164 163 147 148 165 164 148 149 166 165
          149 150 167 166 150 151 168 167 151 152 169 168
          153 154 171 170 154 155 172 171 155 156 173 172
          156 157 174 173 157 158 175 174 158 159 176 175
          159 160 177 176 160 161 178 177 161 162 179 178
          162 163 180 179 163 164 181 180 164 165 182 181
          165 166 183 182 166 167 184 183 167 168 185 184
          168 169 186 185 170 171 188 187 171 172 189 188
          172 173 190 189 173 174 191 190 174 175 192 191
          175 176 193 192 176 177 194 193 177 178 195 194
          178 179 196 195 179 180 197 196 180 181 198 197
          181 182 199 198 182 183 200 199 183 184 201 200
          184 185 202 201 185 186 203 202 187 188 205 204
          188 189 206 205 189 190 207 206 190 191 208 207
          191 192 209 208 192 193 210 209 193 194 211 210
          194 195 212 211 195 196 213 212 196 197 214 213
          197 198 215 214 198 199 216 215 199 200 217 216
          200 201 218 217 201 202 219 218 202 203 220 219
          204 205 222 221 205 206 223 222 206 207 224 223
          207 208 225 224 208 209 226 225 209 210 227 226
          210 211 228 227 211 212 229 228 212 213 230 229
          213 214 231 230 214 215 232 231 215 216 233 232
          216 217 234 233 217 218 235 234 218 219 236 235
          219 220 237 236 221 222 239 238 222 223 240 239
          223 224 241 240 224 225 242 241 225 226 243 242
          226 227 244 243 227 228 245 244 228 229 246 245
          229 230 247 246 230 231 248 247 231 232 249 248
          232 233 250 249 233 234 251 250 234 235 252 251
          235 236 253 252 236 237 254 253 238 239 256 255
          239 240 257 256 240 241 258 257 241 242 259 258
          242 243 260 259 243 244 261 260 244 245 262 261
          245 246 263 262 246 247 264 263 247 248 265 264
          248 249 266 265 249 250 267 266 250 251 268 267
          251 252 269 268 252 253 270 269 253 254 271 270
          255 256 273 272 256 257 274 273 257 258 275 274
          258 259 276 275 259 260 277 276 260 261 278 277
          261 262 279 278 262 263 280 279 263 264 281 280
          264 265 282 281 265 266 283 282 266 267 284 283
          267 268 285 284 268 269 286 285 269 270 287 286
          270 271 288 287
        </DataArray>
        <DataArray type="Int32" Name="offsets" NumberOfComponents="1" format="ascii">
          4 8 12 16 20 24 28 32 36 40 44 48
          52 56 60 64 68 72 76 80 84 88 92 96
          100 104 108 112 116 120 124 128 132 136 140 144
          148 152 156 160 164 168 172 176 180 184 188 192
          196 200 204 208 212 216 220 224 228 232 236 240
          244 248 252 256 260 264 268 272 276 280 284 288
          292 296 300 304 308 312 316 320 324 328 332 336
          340 344 348 352 356 360 364 368 372 376 380 384
          388 392 396 400 404 408 412 416 420 424 428 432
          436 440 444 448 452 456 460 464 468 472 476 480
          484 488 492 496 500 504 508 512 516 520 524 528
          532 536 540 544 548 552 556 560 564 568 572 576
          580 584 588 592 596 600 604 608 612 616 620 624
          628 632 636 640 644 648 652 656 660 664 668 672
          676 680 684 688 692 696 700 704 708 712 716 720
          724 728 732 736 740 744 748 752 756 760 764 768
          772 776 780 784 788 792 796 800 804 808 812 816
          820 824 828 832 836 840 844 848 852 856 860 864
          868 872 876 880 884 888 892 896 900 904 908 912
          916 920 924 928 932 936 940 944 948 952 956 960
          964 968 972 976 980 984 988 992 996 1000 1004 1008
          1012 1016 1020 1024
        </DataArray>
        <DataArray type="UInt8" Name="types" NumberOfComponents="1" format="ascii">
          9 9 9 9 9 9 9 9 9 9 9 9
          9 9 9 9 9 9 9 9 9 9 9 9
          9 9 9 9 9 9 9 9 9 9 9 9
          9 9 9 9 9 9 9 9 9 9 9 9
          9 9 9 9 9 9 9 9 9 9 9 9
          9 9 9 9 9 9 9 9 9 9 9 9
          9 9 9 9 9 9 9 9 9 9 9 9
          9 9 9 9 9 9 9 9 9 9 9 9
          9 9 9 9 9 9 9 9 9 9 9 9
          9 9 9 9 9 9 9 9 9 9 9 9
          9 9 9 9 9 9 9 9 9 9 9 9
          9 9 9 9 9 9 9 9 9 9 9 9
          9 9 9 9 9 9 9 9 9 9 9 9
          9 9 9 9 9 9 9 9 9 9 9 9
          9 9 9 9 9 9 9 9 9 9 9 9
          9 9 9 9 9 9 9 9 9 9 9 9
          9 9 9 9 9 9 9 9 9 9 9 9
          9 9 9 9 9 9 9 9 9 9 9 9
          9 9 9 9 9 9 9 9 9 9 9 9
          9 9 9 9 9 9 9 9 9 9 9 9
          9 9 9 9 9 9 9 9 9 9 9 9
          9 9 9 9
        </DataArray>
      </Cells>
    </Piece>
  </UnstructuredGrid>
</VTKFile>
