<?xml version="1.0"?>
<VTKFile type="UnstructuredGrid" version="0.1" byte_order="LittleEndian">
  <UnstructuredGrid>
    <Piece NumberOfCells="256" NumberOfPoints="289">
      <CellData Scalars="p" Vectors="dv_x/dx_">
        <DataArray type="Float32" Name="p" NumberOfComponents="1" format="ascii">
          100004 100004 100004 100003 100003 100003 100003 100002 100002 100002 100002 100001
          100001 100001 100000 100000 100004 100004 100004 100003 100003 100003 100003 100002
          100002 100002 100002 100001 100001 100001 100000 100000 100004 100004 100004 100003
          100003 100003 100003 100002 100002 100002 100002 100001 100001 100001 100000 100000
          100004 100004 100004 100003 100003 100003 100003 100002 100002 100002 100002 100001
          100001 100001 100000 100000 100004 100004 100004 100003 100003 100003 100003 100002
          100002 100002 100002 100001 100001 100001 100000 100000 100004 100004 100004 100003
          100003 100003 100003 100002 100002 100002 100002 100001 100001 100001 100000 100000
          100004 100004 100004 100003 100003 100003 100003 100002 100002 100002 100002 100001
          100001 100001 100000 100000 100004 100004 100004 100003 100003 100003 100003 100002
          100002 100002 100002 100001 100001 100001 100000 100000 100004 100004 100004 100003
          100003 100003 100003 100002 100002 100002 100002 100001 100001 100001 100000 100000
          100004 100004 100004 100003 100003 100003 100003 100002 100002 100002 100002 100001
          100001 100001 100000 100000 100004 100004 100004 100003 100003 100003 100003 100002
          100002 100002 100002 100001 100001 100001 100000 100000 100004 100004 100004 100003
          100003 100003 100003 100002 100002 100002 100002 100001 100001 100001 100000 100000
          100004 100004 100004 100003 100003 100003 100003 100002 100002 100002 100002 100001
          100001 100001 100000 100000 100004 100004 100004 100003 100003 100003 100003 100002
          100002 100002 100002 100001 100001 100001 100000 100000 100004 100004 100004 100003
          100003 100003 100003 100002 100002 100002 100002 100001 100001 100001 100000 100000
          100004 100004 100004 100003 100003 100003 100003 100002 100002 100002 100002 100001
          100001 100001 100000 100000
        </DataArray>
        <DataArray type="Float32" Name="rhoMolar" NumberOfComponents="1" format="ascii">
          42.4782 42.4781 42.478 42.4779 42.4778 42.4777 42.4776 42.4775 42.4774 42.4773 42.4772 42.4771
          42.477 42.4768 42.4767 42.4766 42.4782 42.4781 42.478 42.4779 42.4778 42.4777 42.4776 42.4775
          42.4774 42.4773 42.4772 42.4771 42.477 42.4768 42.4767 42.4766 42.4782 42.4781 42.478 42.4779
          42.4778 42.4777 42.4776 42.4775 42.4774 42.4773 42.4772 42.4771 42.477 42.4768 42.4767 42.4766
          42.4782 42.4781 42.478 42.4779 42.4778 42.4777 42.4776 42.4775 42.4774 42.4773 42.4772 42.4771
          42.477 42.4768 42.4767 42.4766 42.4782 42.4781 42.478 42.4779 42.4778 42.4777 42.4776 42.4775
          42.4774 42.4773 42.4772 42.4771 42.477 42.4768 42.4767 42.4766 42.4782 42.4781 42.478 42.4779
          42.4778 42.4777 42.4776 42.4775 42.4774 42.4773 42.4772 42.4771 42.477 42.4768 42.4767 42.4766
          42.4782 42.4781 42.478 42.4779 42.4778 42.4777 42.4776 42.4775 42.4774 42.4773 42.4772 42.4771
          42.477 42.4768 42.4767 42.4766 42.4782 42.4781 42.478 42.4779 42.4778 42.4777 42.4776 42.4775
          42.4774 42.4773 42.4772 42.4771 42.477 42.4768 42.4767 42.4766 42.4782 42.4781 42.478 42.4779
          42.4778 42.4777 42.4776 42.4775 42.4774 42.4773 42.4772 42.4771 42.477 42.4768 42.4767 42.4766
          42.4782 42.4781 42.478 42.4779 42.4778 42.4777 42.4776 42.4775 42.4774 42.4773 42.4772 42.4771
          42.477 42.4768 42.4767 42.4766 42.4782 42.4781 42.478 42.4779 42.4778 42.4777 42.4776 42.4775
          42.4774 42.4773 42.4772 42.4771 42.477 42.4768 42.4767 42.4766 42.4782 42.4781 42.478 42.4779
          42.4778 42.4777 42.4776 42.4775 42.4774 42.4773 42.4772 42.4771 42.477 42.4768 42.4767 42.4766
          42.4782 42.4781 42.478 42.4779 42.4778 42.4777 42.4776 42.4775 42.4774 42.4773 42.4772 42.4771
          42.477 42.4768 42.4767 42.4766 42.4782 42.4781 42.478 42.4779 42.4778 42.4777 42.4776 42.4775
          42.4774 42.4773 42.4772 42.4771 42.477 42.4768 42.4767 42.4766 42.4782 42.4781 42.478 42.4779
          42.4778 42.4777 42.4776 42.4775 42.4774 42.4773 42.4772 42.4771 42.477 42.4768 42.4767 42.4766
          42.4782 42.4781 42.478 42.4779 42.4778 42.4777 42.4776 42.4775 42.4774 42.4773 42.4772 42.4771
          42.477 42.4768 42.4767 42.4766
        </DataArray>
        <DataArray type="Float32" Name="rho" NumberOfComponents="1" format="ascii">
          1.23017 1.23017 1.23016 1.23016 1.23016 1.23015 1.23015 1.23015 1.23015 1.23014 1.23014 1.23014
          1.23013 1.23013 1.23013 1.23012 1.23017 1.23017 1.23016 1.23016 1.23016 1.23015 1.23015 1.23015
          1.23015 1.23014 1.23014 1.23014 1.23013 1.23013 1.23013 1.23012 1.23017 1.23017 1.23016 1.23016
          1.23016 1.23015 1.23015 1.23015 1.23015 1.23014 1.23014 1.23014 1.23013 1.23013 1.23013 1.23012
          1.23017 1.23017 1.23016 1.23016 1.23016 1.23015 1.23015 1.23015 1.23015 1.23014 1.23014 1.23014
          1.23013 1.23013 1.23013 1.23012 1.23017 1.23017 1.23016 1.23016 1.23016 1.23015 1.23015 1.23015
          1.23015 1.23014 1.23014 1.23014 1.23013 1.23013 1.23013 1.23012 1.23017 1.23017 1.23016 1.23016
          1.23016 1.23015 1.23015 1.23015 1.23015 1.23014 1.23014 1.23014 1.23013 1.23013 1.23013 1.23012
          1.23017 1.23017 1.23016 1.23016 1.23016 1.23015 1.23015 1.23015 1.23015 1.23014 1.23014 1.23014
          1.23013 1.23013 1.23013 1.23012 1.23017 1.23017 1.23016 1.23016 1.23016 1.23015 1.23015 1.23015
          1.23015 1.23014 1.23014 1.23014 1.23013 1.23013 1.23013 1.23012 1.23017 1.23017 1.23016 1.23016
          1.23016 1.23015 1.23015 1.23015 1.23015 1.23014 1.23014 1.23014 1.23013 1.23013 1.23013 1.23012
          1.23017 1.23017 1.23016 1.23016 1.23016 1.23015 1.23015 1.23015 1.23015 1.23014 1.23014 1.23014
          1.23013 1.23013 1.23013 1.23012 1.23017 1.23017 1.23016 1.23016 1.23016 1.23015 1.23015 1.23015
          1.23015 1.23014 1.23014 1.23014 1.23013 1.23013 1.23013 1.23012 1.23017 1.23017 1.23016 1.23016
          1.23016 1.23015 1.23015 1.23015 1.23015 1.23014 1.23014 1.23014 1.23013 1.23013 1.23013 1.23012
          1.23017 1.23017 1.23016 1.23016 1.23016 1.23015 1.23015 1.23015 1.23015 1.23014 1.23014 1.23014
          1.23013 1.23013 1.23013 1.23012 1.23017 1.23017 1.23016 1.23016 1.23016 1.23015 1.23015 1.23015
          1.23015 1.23014 1.23014 1.23014 1.23013 1.23013 1.23013 1.23012 1.23017 1.23017 1.23016 1.23016
          1.23016 1.23015 1.23015 1.23015 1.23015 1.23014 1.23014 1.23014 1.23013 1.23013 1.23013 1.23012
          1.23017 1.23017 1.23016 1.23016 1.23016 1.23015 1.23015 1.23015 1.23015 1.23014 1.23014 1.23014
          1.23013 1.23013 1.23013 1.23012
        </DataArray>
        <DataArray type="Float32" Name="v_x/v_x,max" NumberOfComponents="1" format="ascii">
          0.803162 0.531626 0.420737 0.372154 0.346782 0.331228 0.321079 0.314722 0.311306 0.31011 0.31042 0.311572
          0.31305 0.314536 0.315866 0.316765 0.924168 0.785225 0.680401 0.615959 0.577475 0.553011 0.537105 0.527391
          0.522498 0.521221 0.522348 0.524768 0.527629 0.530405 0.532839 0.534459 0.967057 0.890583 0.807922 0.742481
          0.698214 0.668812 0.649503 0.637737 0.631866 0.6304 0.631848 0.63485 0.638371 0.641777 0.644751 0.646724
          0.986649 0.949288 0.894596 0.83751 0.791493 0.758513 0.736245 0.722517 0.715576 0.713712 0.715204 0.718492
          0.722393 0.72618 0.729492 0.731683 0.995202 0.980044 0.952012 0.912947 0.872268 0.83844 0.814004 0.798438
          0.790316 0.787851 0.789152 0.792487 0.796542 0.800509 0.803984 0.806279 0.998575 0.993579 0.983269 0.965343
          0.939954 0.912261 0.888575 0.872115 0.862988 0.859782 0.860623 0.863686 0.867559 0.871379 0.874718 0.876912
          0.99972 0.998577 0.996085 0.991471 0.983446 0.971493 0.957406 0.944732 0.936278 0.932657 0.932773 0.934976
          0.937909 0.940778 0.943234 0.944817 1 1 1 1 1 1 1 1
          1 1 1 1 1 1 1 1 1 1 1 1
          1 1 1 1 1 1 1 1 1 1 1 1
          0.99972 0.998577 0.996085 0.991471 0.983446 0.971493 0.957406 0.944732 0.936278 0.932657 0.932773 0.934976
          0.937909 0.940778 0.943234 0.944817 0.998575 0.993579 0.983269 0.965343 0.939954 0.912261 0.888575 0.872115
          0.862988 0.859782 0.860623 0.863686 0.867559 0.871379 0.874718 0.876912 0.995202 0.980044 0.952012 0.912947
          0.872268 0.83844 0.814004 0.798438 0.790316 0.787851 0.789152 0.792487 0.796542 0.800509 0.803984 0.806279
          0.986649 0.949288 0.894596 0.83751 0.791493 0.758513 0.736245 0.722517 0.715576 0.713712 0.715204 0.718492
          0.722393 0.72618 0.729492 0.731683 0.967057 0.890583 0.807922 0.742481 0.698214 0.668812 0.649503 0.637737
          0.631866 0.6304 0.631848 0.63485 0.638371 0.641777 0.644751 0.646724 0.924168 0.785225 0.680401 0.615959
          0.577475 0.553011 0.537105 0.527391 0.522498 0.521221 0.522348 0.524768 0.527629 0.530405 0.532839 0.534459
          0.803162 0.531626 0.420737 0.372154 0.346782 0.331228 0.321079 0.314722 0.311306 0.31011 0.31042 0.311572
          0.31305 0.314536 0.315866 0.316765
        </DataArray>
        <DataArray type="Float32" Name="p_rel" NumberOfComponents="1" format="ascii">
          3.90876 3.70557 3.50876 3.30348 3.09105 2.87003 2.63967 2.39996 2.15095 1.89242 1.62405 1.34583
          1.05839 0.763028 0.461312 0.154575 3.9088 3.70581 3.50896 3.30361 3.09114 2.87009 2.63971 2.4
          2.15098 1.89244 1.62406 1.34583 1.0584 0.763029 0.461312 0.154574 3.90858 3.70597 3.50916 3.30378
          3.09127 2.87019 2.63978 2.40005 2.15102 1.89247 1.62408 1.34584 1.0584 0.763028 0.461309 0.154572
          3.90816 3.70607 3.50931 3.30398 3.09145 2.87033 2.63989 2.40013 2.15107 1.8925 1.6241 1.34585
          1.0584 0.763026 0.461305 0.154569 3.90756 3.70612 3.50938 3.30414 3.09165 2.87052 2.64005 2.40026
          2.15117 1.89257 1.62414 1.34587 1.05841 0.763029 0.461304 0.154564 3.90684 3.70612 3.50938 3.30422
          3.09181 2.87072 2.64026 2.40044 2.15131 1.89268 1.62422 1.34593 1.05844 0.763047 0.461314 0.154559
          3.90606 3.70612 3.50933 3.30421 3.09186 2.87086 2.64046 2.40067 2.15153 1.89286 1.62436 1.34603
          1.05852 0.763099 0.46135 0.154556 3.90543 3.70614 3.50931 3.30418 3.09184 2.87088 2.64055 2.40084
          2.15175 1.89309 1.62458 1.34621 1.05865 0.763201 0.461424 0.154558 3.90543 3.70614 3.50931 3.30418
          3.09184 2.87088 2.64055 2.40084 2.15175 1.89309 1.62458 1.34621 1.05865 0.763201 0.461424 0.154558
          3.90606 3.70612 3.50933 3.30421 3.09186 2.87086 2.64046 2.40067 2.15153 1.89286 1.62436 1.34603
          1.05852 0.763099 0.46135 0.154556 3.90684 3.70612 3.50938 3.30422 3.09181 2.87072 2.64026 2.40044
          2.15131 1.89268 1.62422 1.34593 1.05844 0.763047 0.461314 0.154559 3.90756 3.70612 3.50938 3.30414
          3.09165 2.87052 2.64005 2.40026 2.15117 1.89257 1.62414 1.34587 1.05841 0.763029 0.461304 0.154564
          3.90816 3.70607 3.50931 3.30398 3.09145 2.87033 2.63989 2.40013 2.15107 1.8925 1.6241 1.34585
          1.0584 0.763026 0.461305 0.154569 3.90858 3.70597 3.50916 3.30378 3.09127 2.87019 2.63978 2.40005
          2.15102 1.89247 1.62408 1.34584 1.0584 0.763028 0.461309 0.154572 3.9088 3.70581 3.50896 3.30361
          3.09114 2.87009 2.63971 2.4 2.15098 1.89244 1.62406 1.34583 1.0584 0.763029 0.461312 0.154574
          3.90876 3.70557 3.50876 3.30348 3.09105 2.87003 2.63967 2.39996 2.15095 1.89242 1.62405 1.34583
          1.05839 0.763028 0.461312 0.154575
        </DataArray>
        <DataArray type="Float32" Name="nu" NumberOfComponents="1" format="ascii">
          1.43723e-05 1.43723e-05 1.43723e-05 1.43724e-05 1.43724e-05 1.43724e-05 1.43725e-05 1.43725e-05 1.43725e-05 1.43726e-05 1.43726e-05 1.43726e-05
          1.43727e-05 1.43727e-05 1.43728e-05 1.43728e-05 1.43723e-05 1.43723e-05 1.43723e-05 1.43724e-05 1.43724e-05 1.43724e-05 1.43725e-05 1.43725e-05
          1.43725e-05 1.43726e-05 1.43726e-05 1.43726e-05 1.43727e-05 1.43727e-05 1.43728e-05 1.43728e-05 1.43723e-05 1.43723e-05 1.43723e-05 1.43724e-05
          1.43724e-05 1.43724e-05 1.43725e-05 1.43725e-05 1.43725e-05 1.43726e-05 1.43726e-05 1.43726e-05 1.43727e-05 1.43727e-05 1.43728e-05 1.43728e-05
          1.43723e-05 1.43723e-05 1.43723e-05 1.43724e-05 1.43724e-05 1.43724e-05 1.43725e-05 1.43725e-05 1.43725e-05 1.43726e-05 1.43726e-05 1.43726e-05
          1.43727e-05 1.43727e-05 1.43728e-05 1.43728e-05 1.43723e-05 1.43723e-05 1.43723e-05 1.43724e-05 1.43724e-05 1.43724e-05 1.43725e-05 1.43725e-05
          1.43725e-05 1.43726e-05 1.43726e-05 1.43726e-05 1.43727e-05 1.43727e-05 1.43728e-05 1.43728e-05 1.43723e-05 1.43723e-05 1.43723e-05 1.43724e-05
          1.43724e-05 1.43724e-05 1.43725e-05 1.43725e-05 1.43725e-05 1.43726e-05 1.43726e-05 1.43726e-05 1.43727e-05 1.43727e-05 1.43728e-05 1.43728e-05
          1.43723e-05 1.43723e-05 1.43723e-05 1.43724e-05 1.43724e-05 1.43724e-05 1.43725e-05 1.43725e-05 1.43725e-05 1.43726e-05 1.43726e-05 1.43726e-05
          1.43727e-05 1.43727e-05 1.43728e-05 1.43728e-05 1.43723e-05 1.43723e-05 1.43723e-05 1.43724e-05 1.43724e-05 1.43724e-05 1.43725e-05 1.43725e-05
          1.43725e-05 1.43726e-05 1.43726e-05 1.43726e-05 1.43727e-05 1.43727e-05 1.43728e-05 1.43728e-05 1.43723e-05 1.43723e-05 1.43723e-05 1.43724e-05
          1.43724e-05 1.43724e-05 1.43725e-05 1.43725e-05 1.43725e-05 1.43726e-05 1.43726e-05 1.43726e-05 1.43727e-05 1.43727e-05 1.43728e-05 1.43728e-05
          1.43723e-05 1.43723e-05 1.43723e-05 1.43724e-05 1.43724e-05 1.43724e-05 1.43725e-05 1.43725e-05 1.43725e-05 1.43726e-05 1.43726e-05 1.43726e-05
          1.43727e-05 1.43727e-05 1.43728e-05 1.43728e-05 1.43723e-05 1.43723e-05 1.43723e-05 1.43724e-05 1.43724e-05 1.43724e-05 1.43725e-05 1.43725e-05
          1.43725e-05 1.43726e-05 1.43726e-05 1.43726e-05 1.43727e-05 1.43727e-05 1.43728e-05 1.43728e-05 1.43723e-05 1.43723e-05 1.43723e-05 1.43724e-05
          1.43724e-05 1.43724e-05 1.43725e-05 1.43725e-05 1.43725e-05 1.43726e-05 1.43726e-05 1.43726e-05 1.43727e-05 1.43727e-05 1.43728e-05 1.43728e-05
          1.43723e-05 1.43723e-05 1.43723e-05 1.43724e-05 1.43724e-05 1.43724e-05 1.43725e-05 1.43725e-05 1.43725e-05 1.43726e-05 1.43726e-05 1.43726e-05
          1.43727e-05 1.43727e-05 1.43728e-05 1.43728e-05 1.43723e-05 1.43723e-05 1.43723e-05 1.43724e-05 1.43724e-05 1.43724e-05 1.43725e-05 1.43725e-05
          1.43725e-05 1.43726e-05 1.43726e-05 1.43726e-05 1.43727e-05 1.43727e-05 1.43728e-05 1.43728e-05 1.43723e-05 1.43723e-05 1.43723e-05 1.43724e-05
          1.43724e-05 1.43724e-05 1.43725e-05 1.43725e-05 1.43725e-05 1.43726e-05 1.43726e-05 1.43726e-05 1.43727e-05 1.43727e-05 1.43728e-05 1.43728e-05
          1.43723e-05 1.43723e-05 1.43723e-05 1.43724e-05 1.43724e-05 1.43724e-05 1.43725e-05 1.43725e-05 1.43725e-05 1.43726e-05 1.43726e-05 1.43726e-05
          1.43727e-05 1.43727e-05 1.43728e-05 1.43728e-05
        </DataArray>
        <DataArray type="Float32" Name="nu_t" NumberOfComponents="1" format="ascii">
          1.21183e-05 1.41151e-05 2.49651e-05 3.3418e-05 4.0657e-05 4.73506e-05 5.35691e-05 5.93182e-05 6.45925e-05 6.934e-05 7.34528e-05 7.68376e-05
          7.9474e-05 8.14211e-05 8.27876e-05 8.36994e-05 0.000112878 0.000145229 0.000214362 0.000266374 0.000310351 0.000350021 0.000386075 0.00041883
          0.000448459 0.000474818 0.000497413 0.000515848 0.000530099 0.000540551 0.000547837 0.000552705 0.000244381 0.000229478 0.000356814 0.000486696
          0.000597946 0.000694719 0.000780118 0.000855966 0.000923307 0.000982249 0.00103202 0.00107208 0.00110266 0.00112481 0.00114006 0.00115029
          0.000422314 0.000325529 0.000427978 0.000633589 0.000838934 0.00102125 0.00118091 0.0013207 0.00144281 0.0015479 0.00163508 0.00170405
          0.00175585 0.00179283 0.00181794 0.00183493 0.000620591 0.000521919 0.000469877 0.000647545 0.000931135 0.00121904 0.00148027 0.00170984
          0.00190898 0.00207817 0.00221599 0.00232301 0.00240213 0.00245797 0.00249562 0.00252158 0.00080264 0.000791382 0.000628361 0.000611062
          0.000809911 0.00114747 0.00151324 0.00185195 0.00215144 0.00240615 0.00261121 0.00276878 0.00288517 0.0029682 0.00302548 0.00306674
          0.000949629 0.000967544 0.000866361 0.000750577 0.000711196 0.000838866 0.00113749 0.00153425 0.001939 0.00229538 0.00258585 0.00281608
          0.00299554 0.00313249 0.00323431 0.003312 0.00105083 0.00103433 0.000974546 0.000913898 0.00085026 0.00079724 0.0008086 0.000942297
          0.00120854 0.00157008 0.00196738 0.002347 0.00267634 0.00294337 0.00314964 0.00330612 0.00105083 0.00103433 0.000974546 0.000913898
          0.00085026 0.00079724 0.0008086 0.000942297 0.00120854 0.00157008 0.00196738 0.002347 0.00267634 0.00294337 0.00314964 0.00330612
          0.000949629 0.000967544 0.000866361 0.000750577 0.000711196 0.000838866 0.00113749 0.00153425 0.001939 0.00229538 0.00258585 0.00281608
          0.00299554 0.00313249 0.00323431 0.003312 0.00080264 0.000791382 0.000628361 0.000611062 0.000809911 0.00114747 0.00151324 0.00185195
          0.00215144 0.00240615 0.00261121 0.00276878 0.00288517 0.0029682 0.00302548 0.00306674 0.000620591 0.000521919 0.000469877 0.000647545
          0.000931135 0.00121904 0.00148027 0.00170984 0.00190898 0.00207817 0.00221599 0.00232301 0.00240213 0.00245797 0.00249562 0.00252158
          0.000422314 0.000325529 0.000427978 0.000633589 0.000838934 0.00102125 0.00118091 0.0013207 0.00144281 0.0015479 0.00163508 0.00170405
          0.00175585 0.00179283 0.00181794 0.00183493 0.000244381 0.000229478 0.000356814 0.000486696 0.000597946 0.000694719 0.000780118 0.000855966
          0.000923307 0.000982249 0.00103202 0.00107208 0.00110266 0.00112481 0.00114006 0.00115029 0.000112878 0.000145229 0.000214362 0.000266374
          0.000310351 0.000350021 0.000386075 0.00041883 0.000448459 0.000474818 0.000497413 0.000515848 0.000530099 0.000540551 0.000547837 0.000552705
          1.21183e-05 1.41151e-05 2.49651e-05 3.3418e-05 4.0657e-05 4.73506e-05 5.35691e-05 5.93182e-05 6.45925e-05 6.934e-05 7.34528e-05 7.68376e-05
          7.9474e-05 8.14211e-05 8.27876e-05 8.36994e-05
        </DataArray>
        <DataArray type="Float32" Name="l_w" NumberOfComponents="1" format="ascii">
          0.00179461 0.00179461 0.00179461 0.00179461 0.00179461 0.00179461 0.00179461 0.00179461 0.00179461 0.00179461 0.00179461 0.00179461
          0.00179461 0.00179461 0.00179461 0.00179461 0.00610166 0.00610166 0.00610166 0.00610166 0.00610166 0.00610166 0.00610166 0.00610166
          0.00610166 0.00610166 0.00610166 0.00610166 0.00610166 0.00610166 0.00610166 0.00610166 0.0121315 0.0121315 0.0121315 0.0121315
          0.0121315 0.0121315 0.0121315 0.0121315 0.0121315 0.0121315 0.0121315 0.0121315 0.0121315 0.0121315 0.0121315 0.0121315
          0.0205734 0.0205734 0.0205734 0.0205734 0.0205734 0.0205734 0.0205734 0.0205734 0.0205734 0.0205734 0.0205734 0.0205734
          0.0205734 0.0205734 0.0205734 0.0205734 0.0323919 0.0323919 0.0323919 0.0323919 0.0323919 0.0323919 0.0323919 0.0323919
          0.0323919 0.0323919 0.0323919 0.0323919 0.0323919 0.0323919 0.0323919 0.0323919 0.0489379 0.0489379 0.0489379 0.0489379
          0.0489379 0.0489379 0.0489379 0.0489379 0.0489379 0.0489379 0.0489379 0.0489379 0.0489379 0.0489379 0.0489379 0.0489379
          0.0721023 0.0721023 0.0721023 0.0721023 0.0721023 0.0721023 0.0721023 0.0721023 0.0721023 0.0721023 0.0721023 0.0721023
          0.0721023 0.0721023 0.0721023 0.0721023 0.104532 0.104532 0.104532 0.104532 0.104532 0.104532 0.104532 0.104532
          0.104532 0.104532 0.104532 0.104532 0.104532 0.104532 0.104532 0.104532 0.104532 0.104532 0.104532 0.104532
          0.104532 0.104532 0.104532 0.104532 0.104532 0.104532 0.104532 0.104532 0.104532 0.104532 0.104532 0.104532
          0.0721023 0.0721023 0.0721023 0.0721023 0.0721023 0.0721023 0.0721023 0.0721023 0.0721023 0.0721023 0.0721023 0.0721023
          0.0721023 0.0721023 0.0721023 0.0721023 0.0489379 0.0489379 0.0489379 0.0489379 0.0489379 0.0489379 0.0489379 0.0489379
          0.0489379 0.0489379 0.0489379 0.0489379 0.0489379 0.0489379 0.0489379 0.0489379 0.0323919 0.0323919 0.0323919 0.0323919
          0.0323919 0.0323919 0.0323919 0.0323919 0.0323919 0.0323919 0.0323919 0.0323919 0.0323919 0.0323919 0.0323919 0.0323919
          0.0205734 0.0205734 0.0205734 0.0205734 0.0205734 0.0205734 0.0205734 0.0205734 0.0205734 0.0205734 0.0205734 0.0205734
          0.0205734 0.0205734 0.0205734 0.0205734 0.0121315 0.0121315 0.0121315 0.0121315 0.0121315 0.0121315 0.0121315 0.0121315
          0.0121315 0.0121315 0.0121315 0.0121315 0.0121315 0.0121315 0.0121315 0.0121315 0.00610166 0.00610166 0.00610166 0.00610166
          0.00610166 0.00610166 0.00610166 0.00610166 0.00610166 0.00610166 0.00610166 0.00610166 0.00610166 0.00610166 0.00610166 0.00610166
          0.00179461 0.00179461 0.00179461 0.00179461 0.00179461 0.00179461 0.00179461 0.00179461 0.00179461 0.00179461 0.00179461 0.00179461
          0.00179461 0.00179461 0.00179461 0.00179461
        </DataArray>
        <DataArray type="Float32" Name="y^+" NumberOfComponents="1" format="ascii">
          3.99242 5.85009 5.98791 5.86635 5.76544 5.70532 5.67363 5.66005 5.65799 5.66312 5.67223 5.68288
          5.69341 5.70283 5.71071 5.71582 13.5742 19.8903 20.3589 19.9456 19.6025 19.3981 19.2904 19.2442
          19.2372 19.2546 19.2856 19.3218 19.3576 19.3896 19.4164 19.4338 26.9888 39.5466 40.4783 39.6565
          38.9744 38.5679 38.3538 38.2619 38.248 38.2827 38.3443 38.4163 38.4875 38.5511 38.6044 38.639
          45.7691 67.0654 68.6454 67.2518 66.095 65.4057 65.0425 64.8868 64.8632 64.9221 65.0264 65.1486
          65.2693 65.3773 65.4676 65.5262 72.0616 105.592 108.079 105.885 104.064 102.979 102.407 102.162
          102.125 102.217 102.381 102.574 102.764 102.934 103.076 103.168 108.871 159.529 163.287 159.972
          157.22 155.581 154.717 154.346 154.29 154.43 154.679 154.969 155.256 155.513 155.728 155.867
          160.404 235.04 240.578 235.694 231.639 229.224 227.951 227.405 227.322 227.529 227.894 228.322
          228.745 229.124 229.441 229.646 232.551 340.757 348.784 341.704 335.826 332.324 330.478 329.687
          329.567 329.866 330.397 331.017 331.63 332.179 332.638 332.936 232.551 340.757 348.784 341.704
          335.826 332.324 330.478 329.687 329.567 329.866 330.397 331.017 331.63 332.179 332.638 332.936
          160.404 235.04 240.578 235.694 231.639 229.224 227.951 227.405 227.322 227.529 227.894 228.322
          228.745 229.124 229.441 229.646 108.871 159.529 163.287 159.972 157.22 155.581 154.717 154.346
          154.29 154.43 154.679 154.969 155.256 155.513 155.728 155.867 72.0616 105.592 108.079 105.885
          104.064 102.979 102.407 102.162 102.125 102.217 102.381 102.574 102.764 102.934 103.076 103.168
          45.7691 67.0654 68.6454 67.2518 66.095 65.4057 65.0425 64.8868 64.8632 64.9221 65.0264 65.1486
          65.2693 65.3773 65.4676 65.5262 26.9888 39.5466 40.4783 39.6565 38.9744 38.5679 38.3538 38.2619
          38.248 38.2827 38.3443 38.4163 38.4875 38.5511 38.6044 38.639 13.5742 19.8903 20.3589 19.9456
          19.6025 19.3981 19.2904 19.2442 19.2372 19.2546 19.2856 19.3218 19.3576 19.3896 19.4164 19.4338
          3.99242 5.85009 5.98791 5.86635 5.76544 5.70532 5.67363 5.66005 5.65799 5.66312 5.67223 5.68288
          5.69341 5.70283 5.71071 5.71582
        </DataArray>
        <DataArray type="Float32" Name="u^+" NumberOfComponents="1" format="ascii">
          63.5983 29.4329 23.2855 21.4911 20.8001 20.4499 20.2385 20.1027 20.0162 19.9652 19.9401 19.9323
          19.9348 19.9426 19.9526 19.9609 73.1801 43.4731 37.6565 35.5703 34.6371 34.1426 33.8552 33.6868
          33.5954 33.5567 33.5534 33.5712 33.599 33.6294 33.6583 33.6789 76.5763 49.3062 44.7141 42.8767
          41.879 41.2921 40.94 40.735 40.6274 40.5858 40.5872 40.6136 40.651 40.6907 40.7276 40.7533
          78.1277 52.5563 49.511 48.3644 47.474 46.8302 46.4076 46.1503 46.0098 45.9495 45.9417 45.9645
          46.0015 46.0421 46.0805 46.107 78.8049 54.2591 52.6887 52.7207 52.3189 51.7648 51.3089 50.9997
          50.8154 50.7226 50.6918 50.6982 50.7232 50.7548 50.786 50.8077 79.072 55.0085 54.4186 55.7465
          56.3787 56.3225 56.0094 55.7058 55.488 55.3536 55.2827 55.253 55.2455 55.2482 55.2541 55.2586
          79.1627 55.2852 55.1279 57.2554 58.9874 59.9795 60.348 60.3441 60.2004 60.0454 59.9174 59.8137
          59.7253 59.6483 59.5821 59.5376 79.1849 55.3639 55.3446 57.7479 59.9803 61.7395 63.0328 63.8743
          64.2976 64.381 64.2357 63.9735 63.6793 63.4032 63.1679 63.015 79.1849 55.3639 55.3446 57.7479
          59.9803 61.7395 63.0328 63.8743 64.2976 64.381 64.2357 63.9735 63.6793 63.4032 63.1679 63.015
          79.1627 55.2852 55.1279 57.2554 58.9874 59.9795 60.348 60.3441 60.2004 60.0454 59.9174 59.8137
          59.7253 59.6483 59.5821 59.5376 79.072 55.0085 54.4186 55.7465 56.3787 56.3225 56.0094 55.7058
          55.488 55.3536 55.2827 55.253 55.2455 55.2482 55.2541 55.2586 78.8049 54.2591 52.6887 52.7207
          52.3189 51.7648 51.3089 50.9997 50.8154 50.7226 50.6918 50.6982 50.7232 50.7548 50.786 50.8077
          78.1277 52.5563 49.511 48.3644 47.474 46.8302 46.4076 46.1503 46.0098 45.9495 45.9417 45.9645
          46.0015 46.0421 46.0805 46.107 76.5763 49.3062 44.7141 42.8767 41.879 41.2921 40.94 40.735
          40.6274 40.5858 40.5872 40.6136 40.651 40.6907 40.7276 40.7533 73.1801 43.4731 37.6565 35.5703
          34.6371 34.1426 33.8552 33.6868 33.5954 33.5567 33.5534 33.5712 33.599 33.6294 33.6583 33.6789
          63.5983 29.4329 23.2855 21.4911 20.8001 20.4499 20.2385 20.1027 20.0162 19.9652 19.9401 19.9323
          19.9348 19.9426 19.9526 19.9609
        </DataArray>
        <DataArray type="Float32" Name="turbulentKineticEnergy" NumberOfComponents="1" format="ascii">
          0.00964546 0.0244578 0.046361 0.060789 0.0714522 0.0807354 0.0892477 0.0971609 0.104518 0.11125 0.117193 0.122186
          0.126165 0.129178 0.131354 0.132816 0.0218466 0.0660609 0.10983 0.134742 0.151183 0.164809 0.177215 0.188828
          0.199724 0.209778 0.218706 0.226253 0.232302 0.236909 0.240251 0.242509 0.0176366 0.0369643 0.071576 0.101164
          0.122339 0.138799 0.152831 0.165394 0.176841 0.187184 0.196222 0.203762 0.209731 0.214223 0.217438 0.219629
          0.0149591 0.0205458 0.0390386 0.0648964 0.0879332 0.106356 0.121537 0.134609 0.146149 0.156319 0.165022 0.17215
          0.177697 0.181802 0.184689 0.186672 0.0137594 0.0138442 0.0196122 0.0344058 0.0544031 0.0734723 0.0897398 0.103501
          0.115291 0.12538 0.133766 0.140447 0.145515 0.149173 0.151685 0.153428 0.0133337 0.0115666 0.0118313 0.0159728
          0.0261101 0.0411074 0.0570524 0.0714198 0.0837287 0.0940302 0.1023 0.108647 0.113299 0.116562 0.118751 0.120304
          0.0132215 0.0109311 0.00958553 0.009438 0.0113215 0.0164977 0.0255562 0.0372817 0.0493518 0.0599363 0.06831 0.0745885
          0.0791657 0.082428 0.0846956 0.0863926 0.0132047 0.0108077 0.00911703 0.00798028 0.007424 0.00768318 0.00921342 0.0125499
          0.0178902 0.0247552 0.0321999 0.039242 0.0452761 0.0500955 0.0537533 0.0565054 0.0132047 0.0108077 0.00911703 0.00798028
          0.007424 0.00768318 0.00921342 0.0125499 0.0178902 0.0247552 0.0321999 0.039242 0.0452761 0.0500955 0.0537533 0.0565054
          0.0132215 0.0109311 0.00958553 0.009438 0.0113215 0.0164977 0.0255562 0.0372817 0.0493518 0.0599363 0.06831 0.0745885
          0.0791657 0.082428 0.0846956 0.0863926 0.0133337 0.0115666 0.0118313 0.0159728 0.0261101 0.0411074 0.0570524 0.0714198
          0.0837287 0.0940302 0.1023 0.108647 0.113299 0.116562 0.118751 0.120304 0.0137594 0.0138442 0.0196122 0.0344058
          0.0544031 0.0734723 0.0897398 0.103501 0.115291 0.12538 0.133766 0.140447 0.145515 0.149173 0.151685 0.153428
          0.0149591 0.0205458 0.0390386 0.0648964 0.0879332 0.106356 0.121537 0.134609 0.146149 0.156319 0.165022 0.17215
          0.177697 0.181802 0.184689 0.186672 0.0176366 0.0369643 0.071576 0.101164 0.122339 0.138799 0.152831 0.165394
          0.176841 0.187184 0.196222 0.203762 0.209731 0.214223 0.217438 0.219629 0.0218466 0.0660609 0.10983 0.134742
          0.151183 0.164809 0.177215 0.188828 0.199724 0.209778 0.218706 0.226253 0.232302 0.236909 0.240251 0.242509
          0.00964546 0.0244578 0.046361 0.060789 0.0714522 0.0807354 0.0892477 0.0971609 0.104518 0.11125 0.117193 0.122186
          0.126165 0.129178 0.131354 0.132816
        </DataArray>
        <DataArray type="Float32" Name="dissipation" NumberOfComponents="1" format="ascii">
          0.0310063 0.248156 0.515611 0.649249 0.725021 0.78678 0.845261 0.902608 0.958845 1.01287 1.06268 1.1063
          1.14246 1.17094 1.19235 1.20683 0.0549996 0.552961 1.05715 1.25732 1.33775 1.39644 1.45657 1.52112
          1.58879 1.65682 1.72151 1.77953 1.82856 1.86782 1.89773 1.91812 0.0305654 0.195818 0.480935 0.693075
          0.813748 0.894075 0.96105 1.02386 1.08481 1.14331 1.19733 1.24473 1.28407 1.31502 1.33818 1.35413
          0.0195161 0.0627377 0.174952 0.322187 0.44161 0.526998 0.592911 0.649289 0.700435 0.747367 0.78935 0.825295
          0.854476 0.876944 0.893372 0.904778 0.0154684 0.023237 0.0524155 0.11584 0.199628 0.276597 0.338832 0.389709
          0.433026 0.470664 0.502835 0.529315 0.550031 0.565403 0.576213 0.58375 0.0142353 0.0127854 0.0169831 0.0316071
          0.0633345 0.110391 0.160919 0.205873 0.243532 0.274722 0.299811 0.319141 0.333287 0.343104 0.34955 0.354053
          0.0139482 0.01037 0.00894488 0.00997056 0.0150901 0.027109 0.0479193 0.0755694 0.104773 0.130566 0.150597 0.164939
          0.174742 0.181222 0.185362 0.188378 0.013904 0.0099617 0.00753716 0.00614839 0.00571134 0.00651813 0.009237 0.0147036
          0.0232963 0.0343374 0.0463703 0.0577405 0.0674157 0.0750552 0.080767 0.0850319 0.013904 0.0099617 0.00753716 0.00614839
          0.00571134 0.00651813 0.009237 0.0147036 0.0232963 0.0343374 0.0463703 0.0577405 0.0674157 0.0750552 0.080767 0.0850319
          0.0139482 0.01037 0.00894488 0.00997056 0.0150901 0.027109 0.0479193 0.0755694 0.104773 0.130566 0.150597 0.164939
          0.174742 0.181222 0.185362 0.188378 0.0142353 0.0127854 0.0169831 0.0316071 0.0633345 0.110391 0.160919 0.205873
          0.243532 0.274722 0.299811 0.319141 0.333287 0.343104 0.34955 0.354053 0.0154684 0.023237 0.0524155 0.11584
          0.199628 0.276597 0.338832 0.389709 0.433026 0.470664 0.502835 0.529315 0.550031 0.565403 0.576213 0.58375
          0.0195161 0.0627377 0.174952 0.322187 0.44161 0.526998 0.592911 0.649289 0.700435 0.747367 0.78935 0.825295
          0.854476 0.876944 0.893372 0.904778 0.0305654 0.195818 0.480935 0.693075 0.813748 0.894075 0.96105 1.02386
          1.08481 1.14331 1.19733 1.24473 1.28407 1.31502 1.33818 1.35413 0.0549996 0.552961 1.05715 1.25732
          1.33775 1.39644 1.45657 1.52112 1.58879 1.65682 1.72151 1.77953 1.82856 1.86782 1.89773 1.91812
          0.0310063 0.248156 0.515611 0.649249 0.725021 0.78678 0.845261 0.902608 0.958845 1.01287 1.06268 1.1063
          1.14246 1.17094 1.19235 1.20683
        </DataArray>
        <DataArray type="Float32" Name="stressTensorScalarProduct" NumberOfComponents="1" format="ascii">
          2531.58 11663.2 12801.2 11792.9 11002.2 10550.5 10318.1 10219.7 10204.9 10242 10308.1 10385.8
          10463.1 10532.5 10591 10629 806.068 4056.61 4941.21 4723.68 4432.69 4243.8 4140.34 4093.08
          4081.76 4092.89 4116.67 4145.83 4175.32 4202.08 4224.67 4239.33 59.7699 432.354 771.539 862.567
          838.73 802.343 776.645 762.035 755.498 754.236 756.115 759.575 763.536 767.344 770.635 772.759
          6.17579 65.5709 178.127 260.521 283.024 278.903 270.378 263.704 259.593 257.466 256.653 256.605
          256.924 257.367 257.785 258.043 0.56923 8.1945 34.4061 74.7364 105.045 116.893 118.283 116.588
          114.63 113.053 111.904 111.067 110.415 109.873 109.404 109.075 0.0551845 0.739912 4.33729 14.382
          30.0473 44.6559 53.4744 56.8787 57.3354 56.6832 55.6891 54.5745 53.424 52.3161 51.3195 50.6419
          0.0207499 0.060584 0.331285 1.43708 4.47415 9.90543 16.4679 22.1715 25.7717 27.1138 26.7569 25.4826
          23.924 22.4432 21.1948 20.3971 0.0201861 0.0200037 0.028707 0.0704302 0.22634 0.664424 1.51197 2.59431
          3.48971 3.91473 3.89678 3.63001 3.29206 2.9788 2.72428 2.56662 0.0201861 0.0200037 0.028707 0.0704302
          0.22634 0.664424 1.51197 2.59431 3.48971 3.91473 3.89678 3.63001 3.29206 2.9788 2.72428 2.56662
          0.0207499 0.060584 0.331285 1.43708 4.47415 9.90543 16.4679 22.1715 25.7717 27.1138 26.7569 25.4826
          23.924 22.4432 21.1948 20.3971 0.0551845 0.739912 4.33729 14.382 30.0473 44.6559 53.4744 56.8787
          57.3354 56.6832 55.6891 54.5745 53.424 52.3161 51.3195 50.6419 0.56923 8.1945 34.4061 74.7364
          105.045 116.893 118.283 116.588 114.63 113.053 111.904 111.067 110.415 109.873 109.404 109.075
          6.17579 65.5709 178.127 260.521 283.024 278.903 270.378 263.704 259.593 257.466 256.653 256.605
          256.924 257.367 257.785 258.043 59.7699 432.354 771.539 862.567 838.73 802.343 776.645 762.035
          755.498 754.236 756.115 759.575 763.536 767.344 770.635 772.759 806.068 4056.61 4941.21 4723.68
          4432.69 4243.8 4140.34 4093.08 4081.76 4092.89 4116.67 4145.83 4175.32 4202.08 4224.67 4239.33
          2531.58 11663.2 12801.2 11792.9 11002.2 10550.5 10318.1 10219.7 10204.9 10242 10308.1 10385.8
          10463.1 10532.5 10591 10629
        </DataArray>
        <DataArray type="Float32" Name="eddyViscosity" NumberOfComponents="1" format="ascii">
          1.21183e-05 1.41151e-05 2.49651e-05 3.3418e-05 4.0657e-05 4.73506e-05 5.35691e-05 5.93182e-05 6.45925e-05 6.934e-05 7.34528e-05 7.68376e-05
          7.9474e-05 8.14211e-05 8.27876e-05 8.36994e-05 0.000112878 0.000145229 0.000214362 0.000266374 0.000310351 0.000350021 0.000386075 0.00041883
          0.000448459 0.000474818 0.000497413 0.000515848 0.000530099 0.000540551 0.000547837 0.000552705 0.000244381 0.000229478 0.000356814 0.000486696
          0.000597946 0.000694719 0.000780118 0.000855966 0.000923307 0.000982249 0.00103202 0.00107208 0.00110266 0.00112481 0.00114006 0.00115029
          0.000422314 0.000325529 0.000427978 0.000633589 0.000838934 0.00102125 0.00118091 0.0013207 0.00144281 0.0015479 0.00163508 0.00170405
          0.00175585 0.00179283 0.00181794 0.00183493 0.000620591 0.000521919 0.000469877 0.000647545 0.000931135 0.00121904 0.00148027 0.00170984
          0.00190898 0.00207817 0.00221599 0.00232301 0.00240213 0.00245797 0.00249562 0.00252158 0.00080264 0.000791382 0.000628361 0.000611062
          0.000809911 0.00114747 0.00151324 0.00185195 0.00215144 0.00240615 0.00261121 0.00276878 0.00288517 0.0029682 0.00302548 0.00306674
          0.000949629 0.000967544 0.000866361 0.000750577 0.000711196 0.000838866 0.00113749 0.00153425 0.001939 0.00229538 0.00258585 0.00281608
          0.00299554 0.00313249 0.00323431 0.003312 0.00105083 0.00103433 0.000974546 0.000913898 0.00085026 0.00079724 0.0008086 0.000942297
          0.00120854 0.00157008 0.00196738 0.002347 0.00267634 0.00294337 0.00314964 0.00330612 0.00105083 0.00103433 0.000974546 0.000913898
          0.00085026 0.00079724 0.0008086 0.000942297 0.00120854 0.00157008 0.00196738 0.002347 0.00267634 0.00294337 0.00314964 0.00330612
          0.000949629 0.000967544 0.000866361 0.000750577 0.000711196 0.000838866 0.00113749 0.00153425 0.001939 0.00229538 0.00258585 0.00281608
          0.00299554 0.00313249 0.00323431 0.003312 0.00080264 0.000791382 0.000628361 0.000611062 0.000809911 0.00114747 0.00151324 0.00185195
          0.00215144 0.00240615 0.00261121 0.00276878 0.00288517 0.0029682 0.00302548 0.00306674 0.000620591 0.000521919 0.000469877 0.000647545
          0.000931135 0.00121904 0.00148027 0.00170984 0.00190898 0.00207817 0.00221599 0.00232301 0.00240213 0.00245797 0.00249562 0.00252158
          0.000422314 0.000325529 0.000427978 0.000633589 0.000838934 0.00102125 0.00118091 0.0013207 0.00144281 0.0015479 0.00163508 0.00170405
          0.00175585 0.00179283 0.00181794 0.00183493 0.000244381 0.000229478 0.000356814 0.000486696 0.000597946 0.000694719 0.000780118 0.000855966
          0.000923307 0.000982249 0.00103202 0.00107208 0.00110266 0.00112481 0.00114006 0.00115029 0.000112878 0.000145229 0.000214362 0.000266374
          0.000310351 0.000350021 0.000386075 0.00041883 0.000448459 0.000474818 0.000497413 0.000515848 0.000530099 0.000540551 0.000547837 0.000552705
          1.21183e-05 1.41151e-05 2.49651e-05 3.3418e-05 4.0657e-05 4.73506e-05 5.35691e-05 5.93182e-05 6.45925e-05 6.934e-05 7.34528e-05 7.68376e-05
          7.9474e-05 8.14211e-05 8.27876e-05 8.36994e-05
        </DataArray>
        <DataArray type="Float32" Name="production_k" NumberOfComponents="1" format="ascii">
          0.0613567 0.329254 0.639164 0.788189 0.894634 0.999142 1.10546 1.21243 1.31832 1.42036 1.51432 1.59604
          1.66309 1.71514 1.7536 1.77928 0.181974 1.17827 2.11842 2.51653 2.75138 2.97084 3.19696 3.4286
          3.661 3.88675 4.09537 4.27724 4.42667 4.54288 4.62886 4.68619 0.0292132 0.198432 0.550592 0.839616
          1.00303 1.11481 1.21175 1.30455 1.39511 1.48169 1.56065 1.62865 1.68384 1.72623 1.75713 1.7778
          0.00521625 0.0426905 0.152469 0.330126 0.474877 0.569659 0.638584 0.696547 0.749087 0.797065 0.839295 0.874535
          0.902241 0.922832 0.937276 0.946983 0.000706517 0.00855373 0.0323333 0.0967904 0.195621 0.284995 0.350181 0.398694
          0.437653 0.469888 0.495955 0.516018 0.53046 0.540128 0.546062 0.550084 8.85864e-05 0.00117111 0.00545077 0.0175766
          0.0486713 0.102483 0.161839 0.210673 0.246707 0.272776 0.290831 0.30221 0.308275 0.310569 0.310532 0.310611
          3.94094e-05 0.000117235 0.000574025 0.00215728 0.00636399 0.0166186 0.0374641 0.0680334 0.0999429 0.124473 0.138379 0.143522
          0.14333 0.140606 0.137101 0.13511 4.24243e-05 4.1381e-05 5.59525e-05 0.000128732 0.000384896 0.00105941 0.00244516 0.00488923
          0.00843492 0.0122929 0.0153329 0.0170392 0.0176213 0.0175354 0.017161 0.0169711 4.24243e-05 4.1381e-05 5.59525e-05 0.000128732
          0.000384896 0.00105941 0.00244516 0.00488923 0.00843492 0.0122929 0.0153329 0.0170392 0.0176213 0.0175354 0.017161 0.0169711
          3.94094e-05 0.000117235 0.000574025 0.00215728 0.00636399 0.0166186 0.0374641 0.0680334 0.0999429 0.124473 0.138379 0.143522
          0.14333 0.140606 0.137101 0.13511 8.85864e-05 0.00117111 0.00545077 0.0175766 0.0486713 0.102483 0.161839 0.210673
          0.246707 0.272776 0.290831 0.30221 0.308275 0.310569 0.310532 0.310611 0.000706517 0.00855373 0.0323333 0.0967904
          0.195621 0.284995 0.350181 0.398694 0.437653 0.469888 0.495955 0.516018 0.53046 0.540128 0.546062 0.550084
          0.00521625 0.0426905 0.152469 0.330126 0.474877 0.569659 0.638584 0.696547 0.749087 0.797065 0.839295 0.874535
          0.902241 0.922832 0.937276 0.946983 0.0292132 0.198432 0.550592 0.839616 1.00303 1.11481 1.21175 1.30455
          1.39511 1.48169 1.56065 1.62865 1.68384 1.72623 1.75713 1.7778 0.181974 1.17827 2.11842 2.51653
          2.75138 2.97084 3.19696 3.4286 3.661 3.88675 4.09537 4.27724 4.42667 4.54288 4.62886 4.68619
          0.0613567 0.329254 0.639164 0.788189 0.894634 0.999142 1.10546 1.21243 1.31832 1.42036 1.51432 1.59604
          1.66309 1.71514 1.7536 1.77928
        </DataArray>
        <DataArray type="Float32" Name="production_eps" NumberOfComponents="1" format="ascii">
          0.26627 4.50996 9.59655 11.3645 12.255 13.1447 14.1342 15.2054 16.3273 17.4576 18.5377 19.5088
          20.3306 20.9884 21.4894 21.8259 0.618471 13.3147 27.5273 31.7014 32.8666 33.9827 35.4732 37.2863
          39.3161 41.4414 43.5187 45.4158 47.04 48.3525 49.3601 50.0381 0.0683486 1.41911 4.9944 7.76545
          9.00685 9.69438 10.2868 10.9022 11.5535 12.2176 12.856 13.4312 13.9175 14.3055 14.5988 14.7975
          0.00918714 0.175983 0.922438 2.21259 3.21959 3.81061 4.20566 4.53573 4.84661 5.14456 5.41971 5.65996
          5.857 6.0094 6.12058 6.19638 0.00107226 0.0193822 0.116659 0.439941 0.969052 1.44842 1.78494 2.0266
          2.21913 2.38128 2.51685 2.62542 2.70686 2.76374 2.80038 2.82544 0.000127678 0.00174759 0.0105628 0.0469537
          0.159382 0.371535 0.616241 0.819829 0.968715 1.07589 1.15066 1.19842 1.22423 1.23413 1.23399 1.23406
          5.61271e-05 0.000150144 0.000723141 0.00307667 0.0114512 0.0368654 0.0948339 0.186168 0.286438 0.366056 0.411848 0.428454
          0.427101 0.417324 0.405074 0.397719 6.03059e-05 5.14914e-05 6.24464e-05 0.000133895 0.00039974 0.00121333 0.00330941 0.0077332
          0.0148282 0.0230191 0.0298087 0.0338464 0.0354212 0.0354676 0.03481 0.0344775 6.03059e-05 5.14914e-05 6.24464e-05 0.000133895
          0.00039974 0.00121333 0.00330941 0.0077332 0.0148282 0.0230191 0.0298087 0.0338464 0.0354212 0.0354676 0.03481 0.0344775
          5.61271e-05 0.000150144 0.000723141 0.00307667 0.0114512 0.0368654 0.0948339 0.186168 0.286438 0.366056 0.411848 0.428454
          0.427101 0.417324 0.405074 0.397719 0.000127678 0.00174759 0.0105628 0.0469537 0.159382 0.371535 0.616241 0.819829
          0.968715 1.07589 1.15066 1.19842 1.22423 1.23413 1.23399 1.23406 0.00107226 0.0193822 0.116659 0.439941
          0.969052 1.44842 1.78494 2.0266 2.21913 2.38128 2.51685 2.62542 2.70686 2.76374 2.80038 2.82544
          0.00918714 0.175983 0.922438 2.21259 3.21959 3.81061 4.20566 4.53573 4.84661 5.14456 5.41971 5.65996
          5.857 6.0094 6.12058 6.19638 0.0683486 1.41911 4.9944 7.76545 9.00685 9.69438 10.2868 10.9022
          11.5535 12.2176 12.856 13.4312 13.9175 14.3055 14.5988 14.7975 0.618471 13.3147 27.5273 31.7014
          32.8666 33.9827 35.4732 37.2863 39.3161 41.4414 43.5187 45.4158 47.04 48.3525 49.3601 50.0381
          0.26627 4.50996 9.59655 11.3645 12.255 13.1447 14.1342 15.2054 16.3273 17.4576 18.5377 19.5088
          20.3306 20.9884 21.4894 21.8259
        </DataArray>
        <DataArray type="Float32" Name="destruction_k" NumberOfComponents="1" format="ascii">
          0.0310063 0.248156 0.515611 0.649249 0.725021 0.78678 0.845261 0.902608 0.958845 1.01287 1.06268 1.1063
          1.14246 1.17094 1.19235 1.20683 0.0549996 0.552961 1.05715 1.25732 1.33775 1.39644 1.45657 1.52112
          1.58879 1.65682 1.72151 1.77953 1.82856 1.86782 1.89773 1.91812 0.0305654 0.195818 0.480935 0.693075
          0.813748 0.894075 0.96105 1.02386 1.08481 1.14331 1.19733 1.24473 1.28407 1.31502 1.33818 1.35413
          0.0195161 0.0627377 0.174952 0.322187 0.44161 0.526998 0.592911 0.649289 0.700435 0.747367 0.78935 0.825295
          0.854476 0.876944 0.893372 0.904778 0.0154684 0.023237 0.0524155 0.11584 0.199628 0.276597 0.338832 0.389709
          0.433026 0.470664 0.502835 0.529315 0.550031 0.565403 0.576213 0.58375 0.0142353 0.0127854 0.0169831 0.0316071
          0.0633345 0.110391 0.160919 0.205873 0.243532 0.274722 0.299811 0.319141 0.333287 0.343104 0.34955 0.354053
          0.0139482 0.01037 0.00894488 0.00997056 0.0150901 0.027109 0.0479193 0.0755694 0.104773 0.130566 0.150597 0.164939
          0.174742 0.181222 0.185362 0.188378 0.013904 0.0099617 0.00753716 0.00614839 0.00571134 0.00651813 0.009237 0.0147036
          0.0232963 0.0343374 0.0463703 0.0577405 0.0674157 0.0750552 0.080767 0.0850319 0.013904 0.0099617 0.00753716 0.00614839
          0.00571134 0.00651813 0.009237 0.0147036 0.0232963 0.0343374 0.0463703 0.0577405 0.0674157 0.0750552 0.080767 0.0850319
          0.0139482 0.01037 0.00894488 0.00997056 0.0150901 0.027109 0.0479193 0.0755694 0.104773 0.130566 0.150597 0.164939
          0.174742 0.181222 0.185362 0.188378 0.0142353 0.0127854 0.0169831 0.0316071 0.0633345 0.110391 0.160919 0.205873
          0.243532 0.274722 0.299811 0.319141 0.333287 0.343104 0.34955 0.354053 0.0154684 0.023237 0.0524155 0.11584
          0.199628 0.276597 0.338832 0.389709 0.433026 0.470664 0.502835 0.529315 0.550031 0.565403 0.576213 0.58375
          0.0195161 0.0627377 0.174952 0.322187 0.44161 0.526998 0.592911 0.649289 0.700435 0.747367 0.78935 0.825295
          0.854476 0.876944 0.893372 0.904778 0.0305654 0.195818 0.480935 0.693075 0.813748 0.894075 0.96105 1.02386
          1.08481 1.14331 1.19733 1.24473 1.28407 1.31502 1.33818 1.35413 0.0549996 0.552961 1.05715 1.25732
          1.33775 1.39644 1.45657 1.52112 1.58879 1.65682 1.72151 1.77953 1.82856 1.86782 1.89773 1.91812
          0.0310063 0.248156 0.515611 0.649249 0.725021 0.78678 0.845261 0.902608 0.958845 1.01287 1.06268 1.1063
          1.14246 1.17094 1.19235 1.20683
        </DataArray>
        <DataArray type="Float32" Name="destruction_eps" NumberOfComponents="1" format="ascii">
          0.179411 4.53215 10.322 12.4816 13.2422 13.8012 14.4098 15.0931 15.8336 16.5988 17.3452 18.03
          18.6215 19.1052 19.482 19.7384 0.249234 8.33139 18.3159 21.1184 21.3068 21.298 21.5492 22.0564
          22.7498 23.5539 24.391 25.1934 25.9083 26.507 26.982 27.3083 0.0953497 1.86723 5.81673 8.54682
          9.74289 10.3665 10.8781 11.4086 11.9783 12.5699 13.1508 13.6868 14.1511 14.5303 14.8241 15.0281
          0.0458304 0.344832 1.41128 2.87918 3.99207 4.70032 5.20648 5.63733 6.04244 6.43172 6.79626 7.12171
          7.3959 7.61411 7.7785 7.89363 0.0313012 0.0702045 0.252154 0.702037 1.31853 1.87433 2.30279 2.64124
          2.92756 3.18028 3.40235 3.59076 3.7423 3.85742 3.94001 3.99781 0.027356 0.0254388 0.0438807 0.11258
          0.276532 0.533608 0.816982 1.0682 1.275 1.44475 1.58158 1.68741 1.76475 1.81789 1.85206 1.87554
          0.0264868 0.0177079 0.0150247 0.0189597 0.0362038 0.0801818 0.161732 0.27572 0.400373 0.511965 0.597617 0.656521
          0.69427 0.717164 0.730222 0.739363 0.0263526 0.0165275 0.0112159 0.00852663 0.00790879 0.00995355 0.0166692 0.0310086
          0.0546051 0.0857318 0.120198 0.152926 0.180686 0.202412 0.218441 0.230328 0.0263526 0.0165275 0.0112159 0.00852663
          0.00790879 0.00995355 0.0166692 0.0310086 0.0546051 0.0857318 0.120198 0.152926 0.180686 0.202412 0.218441 0.230328
          0.0264868 0.0177079 0.0150247 0.0189597 0.0362038 0.0801818 0.161732 0.27572 0.400373 0.511965 0.597617 0.656521
          0.69427 0.717164 0.730222 0.739363 0.027356 0.0254388 0.0438807 0.11258 0.276532 0.533608 0.816982 1.0682
          1.275 1.44475 1.58158 1.68741 1.76475 1.81789 1.85206 1.87554 0.0313012 0.0702045 0.252154 0.702037
          1.31853 1.87433 2.30279 2.64124 2.92756 3.18028 3.40235 3.59076 3.7423 3.85742 3.94001 3.99781
          0.0458304 0.344832 1.41128 2.87918 3.99207 4.70032 5.20648 5.63733 6.04244 6.43172 6.79626 7.12171
          7.3959 7.61411 7.7785 7.89363 0.0953497 1.86723 5.81673 8.54682 9.74289 10.3665 10.8781 11.4086
          11.9783 12.5699 13.1508 13.6868 14.1511 14.5303 14.8241 15.0281 0.249234 8.33139 18.3159 21.1184
          21.3068 21.298 21.5492 22.0564 22.7498 23.5539 24.391 25.1934 25.9083 26.507 26.982 27.3083
          0.179411 4.53215 10.322 12.4816 13.2422 13.8012 14.4098 15.0931 15.8336 16.5988 17.3452 18.03
          18.6215 19.1052 19.482 19.7384
        </DataArray>
        <DataArray type="Float32" Name="dValue" NumberOfComponents="1" format="ascii">
          0.0860874 0.21829 0.413782 0.542556 0.637729 0.720585 0.796562 0.867192 0.932855 0.99295 1.04599 1.09056
          1.12608 1.15298 1.1724 1.18545 0.0168672 0.051004 0.084797 0.104031 0.116726 0.127246 0.136825 0.145791
          0.154205 0.161968 0.168861 0.174689 0.17936 0.182917 0.185498 0.187242 0.00344459 0.00721949 0.0139795 0.0197585
          0.0238942 0.0271091 0.0298496 0.0323035 0.0345394 0.0365597 0.038325 0.0397977 0.0409637 0.041841 0.0424692 0.0428973
          0.00101589 0.0013953 0.00265119 0.00440726 0.00597174 0.00722291 0.00825387 0.00914168 0.0099254 0.0106161 0.0112072 0.0116913
          0.0120681 0.0123468 0.012543 0.0126777 0.000376948 0.000379271 0.000537291 0.000942575 0.00149042 0.00201284 0.00245851 0.00283552
          0.00315853 0.00343494 0.00366468 0.00384775 0.0039866 0.00408683 0.00415565 0.00420341 0.000160035 0.000138827 0.000142003 0.000191712
          0.000313384 0.000493389 0.000684769 0.000857215 0.00100495 0.0011286 0.00122786 0.00130405 0.00135989 0.00139906 0.00142533 0.00144398
          7.31034e-05 6.04398e-05 5.29999e-05 5.21843e-05 6.25985e-05 9.1219e-05 0.000141305 0.000206139 0.000272878 0.000331402 0.000377704 0.000412421
          0.000437731 0.00045577 0.00046831 0.000477695 3.47362e-05 2.84307e-05 2.39833e-05 2.0993e-05 1.95297e-05 2.02115e-05 2.42371e-05 3.30141e-05
          4.70625e-05 6.51222e-05 8.47068e-05 0.000103232 0.000119106 0.000131785 0.000141408 0.000148648 3.47362e-05 2.84307e-05 2.39833e-05 2.0993e-05
          1.95297e-05 2.02115e-05 2.42371e-05 3.30141e-05 4.70625e-05 6.51222e-05 8.47068e-05 0.000103232 0.000119106 0.000131785 0.000141408 0.000148648
          7.31034e-05 6.04398e-05 5.29999e-05 5.21843e-05 6.25985e-05 9.1219e-05 0.000141305 0.000206139 0.000272878 0.000331402 0.000377704 0.000412421
          0.000437731 0.00045577 0.00046831 0.000477695 0.000160035 0.000138827 0.000142003 0.000191712 0.000313384 0.000493389 0.000684769 0.000857215
          0.00100495 0.0011286 0.00122786 0.00130405 0.00135989 0.00139906 0.00142533 0.00144398 0.000376948 0.000379271 0.000537291 0.000942575
          0.00149042 0.00201284 0.00245851 0.00283552 0.00315853 0.00343494 0.00366468 0.00384775 0.0039866 0.00408683 0.00415565 0.00420341
          0.00101589 0.0013953 0.00265119 0.00440726 0.00597174 0.00722291 0.00825387 0.00914168 0.0099254 0.0106161 0.0112072 0.0116913
          0.0120681 0.0123468 0.012543 0.0126777 0.00344459 0.00721949 0.0139795 0.0197585 0.0238942 0.0271091 0.0298496 0.0323035
          0.0345394 0.0365597 0.038325 0.0397977 0.0409637 0.041841 0.0424692 0.0428973 0.0168672 0.051004 0.084797 0.104031
          0.116726 0.127246 0.136825 0.145791 0.154205 0.161968 0.168861 0.174689 0.17936 0.182917 0.185498 0.187242
          0.0860874 0.21829 0.413782 0.542556 0.637729 0.720585 0.796562 0.867192 0.932855 0.99295 1.04599 1.09056
          1.12608 1.15298 1.1724 1.18545
        </DataArray>
        <DataArray type="Float32" Name="eValue" NumberOfComponents="1" format="ascii">
          -0.0375944 -0.118853 -0.230506 -0.308439 -0.362262 -0.405118 -0.442181 -0.475399 -0.50554 -0.532656 -0.556317 -0.576073
          -0.59178 -0.603686 -0.612306 -0.618164 -4.79086e-05 -2.04752e-05 -3.09686e-05 -4.52876e-05 -5.7202e-05 -6.61376e-05 -7.28029e-05 -7.78058e-05
          -8.1552e-05 -8.43053e-05 -8.62517e-05 -8.75586e-05 -8.83755e-05 -8.88389e-05 -8.90604e-05 -8.92394e-05 -8.23039e-09 -9.88871e-11 -1.52429e-10 -3.31287e-10
          -5.47069e-10 -7.36513e-10 -8.81175e-10 -9.8287e-10 -1.04865e-09 -1.0862e-09 -1.10305e-09 -1.10617e-09 -1.10123e-09 -1.09244e-09 -1.08246e-09 -1.07661e-09
          -1.52653e-13 -1.1652e-17 -1.47471e-17 -5.45144e-17 -1.33243e-16 -2.2443e-16 -3.02785e-16 -3.58425e-16 -3.91243e-16 -4.05362e-16 -4.06362e-16 -3.997e-16
          -3.89596e-16 -3.78826e-16 -3.68875e-16 -3.62807e-16 -9.53134e-20 -7.49712e-27 -4.87537e-27 -3.22745e-26 -1.3827e-25 -3.29608e-25 -5.37422e-25 -6.98736e-25
          -7.90944e-25 -8.20796e-25 -8.07726e-25 -7.72325e-25 -7.298e-25 -6.89063e-25 -6.5402e-25 -6.32729e-25 -3.90466e-28 -3.50562e-39 -7.11174e-40 -6.94338e-39
          -5.50758e-38 -2.17904e-37 -4.89273e-37 -7.5332e-37 -9.16454e-37 -9.63985e-37 -9.29199e-37 -8.5539e-37 -7.73838e-37 -7.00622e-37 -6.41051e-37 -6.05632e-37
          -1.13717e-39 -0 -0 -0 -0 -0 -0 -0 -0 -0 -0 -0
          -0 -0 -0 -0 -0 -0 -0 -0 -0 -0 -0 -0
          -0 -0 -0 -0 -0 -0 -0 -0 -0 -0 -0 -0
          -0 -0 -0 -0 -0 -0 -0 -0 -0 -0 -0 -0
          -1.13717e-39 -0 -0 -0 -0 -0 -0 -0 -0 -0 -0 -0
          -0 -0 -0 -0 -3.90466e-28 -3.50562e-39 -7.11174e-40 -6.94338e-39 -5.50758e-38 -2.17904e-37 -4.89273e-37 -7.5332e-37
          -9.16454e-37 -9.63985e-37 -9.29199e-37 -8.5539e-37 -7.73838e-37 -7.00622e-37 -6.41051e-37 -6.05632e-37 -9.53134e-20 -7.49712e-27 -4.87537e-27 -3.22745e-26
          -1.3827e-25 -3.29608e-25 -5.37422e-25 -6.98736e-25 -7.90944e-25 -8.20796e-25 -8.07726e-25 -7.72325e-25 -7.298e-25 -6.89063e-25 -6.5402e-25 -6.32729e-25
          -1.52653e-13 -1.1652e-17 -1.47471e-17 -5.45144e-17 -1.33243e-16 -2.2443e-16 -3.02785e-16 -3.58425e-16 -3.91243e-16 -4.05362e-16 -4.06362e-16 -3.997e-16
          -3.89596e-16 -3.78826e-16 -3.68875e-16 -3.62807e-16 -8.23039e-09 -9.88871e-11 -1.52429e-10 -3.31287e-10 -5.47069e-10 -7.36513e-10 -8.81175e-10 -9.8287e-10
          -1.04865e-09 -1.0862e-09 -1.10305e-09 -1.10617e-09 -1.10123e-09 -1.09244e-09 -1.08246e-09 -1.07661e-09 -4.79086e-05 -2.04752e-05 -3.09686e-05 -4.52876e-05
          -5.7202e-05 -6.61376e-05 -7.28029e-05 -7.78058e-05 -8.1552e-05 -8.43053e-05 -8.62517e-05 -8.75586e-05 -8.83755e-05 -8.88389e-05 -8.90604e-05 -8.92394e-05
          -0.0375944 -0.118853 -0.230506 -0.308439 -0.362262 -0.405118 -0.442181 -0.475399 -0.50554 -0.532656 -0.556317 -0.576073
          -0.59178 -0.603686 -0.612306 -0.618164
        </DataArray>
        <DataArray type="Float32" Name="dv_x/dx_" NumberOfComponents="3" format="ascii">
          -1.04721 71.1311 0 -0.733452 152.726 0 -0.295426 160.007 0 -0.124996 153.577 0
          -0.0602296 148.339 0 -0.0326446 145.262 0 -0.0185184 143.653 0 -0.0100827 142.966 0
          -0.00458806 142.863 0 -0.00093678 143.122 0 0.0013345 143.583 0 0.00251863 144.124 0
          0.00292609 144.659 0 0.00286494 145.138 0 0.00233639 145.54 0 0.00191913 145.801 0
          -0.484914 40.143 0 -0.427217 90.0735 0 -0.292495 99.4109 0 -0.165201 97.198 0
          -0.0888801 94.1564 0 -0.0487903 92.1284 0 -0.0264271 90.9984 0 -0.0128054 90.4774 0
          -0.00405024 90.3523 0 0.001546 90.4753 0 0.00478435 90.7378 0 0.0062235 91.0586 0
          0.00642157 91.3819 0 0.00590194 91.6742 0 0.00462026 91.9202 0 0.00371704 92.0796 0
          -0.221402 10.9312 0 -0.243333 29.4061 0 -0.23651 39.2822 0 -0.168448 41.5352 0
          -0.102153 40.9573 0 -0.0587604 40.0589 0 -0.032171 39.412 0 -0.0154258 39.0395 0
          -0.00460575 38.8717 0 0.00225115 38.8391 0 0.00615802 38.8874 0 0.00784492 38.9763 0
          0.00801712 39.0778 0 0.0073171 39.1751 0 0.00568856 39.259 0 0.00455474 39.313 0
          -0.057133 3.51701 0 -0.0989863 11.4534 0 -0.152071 18.8754 0 -0.145808 22.8271 0
          -0.105972 23.7925 0 -0.0666798 23.6185 0 -0.0382288 23.2546 0 -0.0190617 22.9657 0
          -0.00637022 22.7859 0 0.00172879 22.6923 0 0.00637238 22.6563 0 0.00842698 22.6542 0
          0.0087231 22.6682 0 0.00799982 22.6877 0 0.00621735 22.7061 0 0.00496881 22.7174 0
          0.035869 1.06446 0 0.00560069 4.05036 0 -0.0521615 8.29708 0 -0.0887511 12.2273 0
          -0.0893256 14.4956 0 -0.0674777 15.291 0 -0.0427513 15.3815 0 -0.0230232 15.2707 0
          -0.00903834 15.1418 0 0.00015103 15.0371 0 0.0055408 14.9603 0 0.0080378 14.9042 0
          0.00856077 14.8603 0 0.0079308 14.8238 0 0.00617013 14.792 0 0.00492242 14.7697 0
          0.0783768 0.288076 0 0.0651338 1.21056 0 0.033478 2.94562 0 -0.00515367 5.36494 0
          -0.0364517 7.75381 0 -0.0465771 9.45201 0 -0.03869 10.3429 0 -0.0245019 10.6667 0
          -0.011671 10.7092 0 -0.00238826 10.6478 0 0.00335568 10.5538 0 0.00615705 10.4475 0
          0.00689857 10.3367 0 0.006451 10.2289 0 0.0049911 10.1309 0 0.00395638 10.0637 0
          0.0944803 0.0649105 0 0.0900265 0.299572 0 0.0798163 0.798725 0 0.0639968 1.69129 0
          0.0405134 2.99127 0 0.0147727 4.45211 0 -0.00416185 5.74039 0 -0.0113868 6.66033 0
          -0.00963812 7.1804 0 -0.00478397 7.36463 0 -0.000823291 7.3157 0 0.00114013 7.13912 0
          0.00161599 6.9172 0 0.00139317 6.69963 0 0.000922586 6.51051 0 0.00065334 6.38671 0
          0.0992502 0.0100933 0 0.0977706 0.052521 0 0.0953755 0.14786 0 0.0923613 0.329314 0
          0.0863376 0.652457 0 0.0756913 1.14451 0 0.059522 1.73618 0 0.0395434 2.27743 0
          0.0196531 2.64221 0 0.0036293 2.79851 0 -0.006674 2.79188 0 -0.0115664 2.69443 0
          -0.0126481 2.56584 0 -0.0116367 2.44068 0 -0.0089261 2.33404 0 -0.00705543 2.26547 0
          0.0992502 -0.0100933 0 0.0977706 -0.052521 0 0.0953755 -0.14786 0 0.0923613 -0.329314 0
          0.0863376 -0.652457 0 0.0756913 -1.14451 0 0.059522 -1.73618 0 0.0395434 -2.27743 0
          0.0196531 -2.64221 0 0.0036293 -2.79851 0 -0.006674 -2.79188 0 -0.0115664 -2.69443 0
          -0.0126481 -2.56584 0 -0.0116367 -2.44068 0 -0.0089261 -2.33404 0 -0.00705543 -2.26547 0
          0.0944803 -0.0649105 0 0.0900265 -0.299572 0 0.0798163 -0.798725 0 0.0639968 -1.69129 0
          0.0405134 -2.99127 0 0.0147727 -4.45211 0 -0.00416185 -5.74039 0 -0.0113868 -6.66033 0
          -0.00963812 -7.1804 0 -0.00478397 -7.36463 0 -0.000823291 -7.3157 0 0.00114013 -7.13912 0
          0.00161599 -6.9172 0 0.00139317 -6.69963 0 0.000922586 -6.51051 0 0.00065334 -6.38671 0
          0.0783768 -0.288076 0 0.0651338 -1.21056 0 0.033478 -2.94562 0 -0.00515367 -5.36494 0
          -0.0364517 -7.75381 0 -0.0465771 -9.45201 0 -0.03869 -10.3429 0 -0.0245019 -10.6667 0
          -0.011671 -10.7092 0 -0.00238826 -10.6478 0 0.00335568 -10.5538 0 0.00615705 -10.4475 0
          0.00689857 -10.3367 0 0.006451 -10.2289 0 0.0049911 -10.1309 0 0.00395638 -10.0637 0
          0.035869 -1.06446 0 0.00560069 -4.05036 0 -0.0521615 -8.29708 0 -0.0887511 -12.2273 0
          -0.0893256 -14.4956 0 -0.0674777 -15.291 0 -0.0427513 -15.3815 0 -0.0230232 -15.2707 0
          -0.00903834 -15.1418 0 0.00015103 -15.0371 0 0.0055408 -14.9603 0 0.0080378 -14.9042 0
          0.00856077 -14.8603 0 0.0079308 -14.8238 0 0.00617013 -14.792 0 0.00492242 -14.7697 0
          -0.057133 -3.51701 0 -0.0989863 -11.4534 0 -0.152071 -18.8754 0 -0.145808 -22.8271 0
          -0.105972 -23.7925 0 -0.0666798 -23.6185 0 -0.0382288 -23.2546 0 -0.0190617 -22.9657 0
          -0.00637022 -22.7859 0 0.00172879 -22.6923 0 0.00637238 -22.6563 0 0.00842698 -22.6542 0
          0.0087231 -22.6682 0 0.00799982 -22.6877 0 0.00621735 -22.7061 0 0.00496881 -22.7174 0
          -0.221402 -10.9312 0 -0.243333 -29.4061 0 -0.23651 -39.2822 0 -0.168448 -41.5352 0
          -0.102153 -40.9573 0 -0.0587604 -40.0589 0 -0.032171 -39.412 0 -0.0154258 -39.0395 0
          -0.00460575 -38.8717 0 0.00225115 -38.8391 0 0.00615802 -38.8874 0 0.00784492 -38.9763 0
          0.00801712 -39.0778 0 0.0073171 -39.1751 0 0.00568856 -39.259 0 0.00455474 -39.313 0
          -0.484914 -40.143 0 -0.427217 -90.0735 0 -0.292495 -99.4109 0 -0.165201 -97.198 0
          -0.0888801 -94.1564 0 -0.0487903 -92.1284 0 -0.0264271 -90.9984 0 -0.0128054 -90.4774 0
          -0.00405024 -90.3523 0 0.001546 -90.4753 0 0.00478435 -90.7378 0 0.0062235 -91.0586 0
          0.00642157 -91.3819 0 0.00590194 -91.6742 0 0.00462026 -91.9202 0 0.00371704 -92.0796 0
          -1.04721 -71.1311 0 -0.733452 -152.726 0 -0.295426 -160.007 0 -0.124996 -153.577 0
          -0.0602296 -148.339 0 -0.0326446 -145.262 0 -0.0185184 -143.653 0 -0.0100827 -142.966 0
          -0.00458806 -142.863 0 -0.00093678 -143.122 0 0.0013345 -143.583 0 0.00251863 -144.124 0
          0.00292609 -144.659 0 0.00286494 -145.138 0 0.00233639 -145.54 0 0.00191913 -145.801 0
        </DataArray>
        <DataArray type="Float32" Name="dv_y/dx_" NumberOfComponents="3" format="ascii">
          -0.00255945 0.921012 0 -0.00180182 0.5174 0 -0.00071365 0.263463 0 -0.000265085 0.130558 0
          -0.000106854 0.0692344 0 -5.15593e-05 0.0387612 0 -2.95629e-05 0.0215135 0 -1.88808e-05 0.0107581 0
          -1.26729e-05 0.00367356 0 -8.29467e-06 -0.00098772 0 -4.74789e-06 -0.0037232 0 -2.05144e-06 -0.00493179 0
          -2.8768e-07 -0.00510986 0 6.3952e-07 -0.00468561 0 2.39643e-06 -0.00404098 0 3.89167e-06 -0.0018824 0
          -0.00534085 0.564486 0 -0.0040675 0.421255 0 -0.00204657 0.264268 0 -0.000934329 0.146047 0
          -0.000423154 0.0809639 0 -0.000215989 0.0457376 0 -0.000126052 0.0251026 0 -8.03507e-05 0.0121144 0
          -5.3145e-05 0.00358962 0 -3.37813e-05 -0.00193873 0 -1.83378e-05 -0.00510657 0 -6.82937e-06 -0.00643334 0
          5.60579e-07 -0.00652766 0 4.32251e-06 -0.00591378 0 1.20553e-05 -0.00504073 0 1.87671e-05 -0.00232417 0
          -0.00492836 0.171354 0 -0.00428449 0.251161 0 -0.0029895 0.230904 0 -0.00178092 0.157047 0
          -0.000936367 0.0957519 0 -0.000513507 0.0560701 0 -0.000307612 0.0310326 0 -0.000196783 0.0148333 0
          -0.000128886 0.004162 0 -8.02082e-05 -0.00268861 0 -4.19163e-05 -0.00655777 0 -1.38032e-05 -0.00813365 0
          4.00887e-06 -0.00818753 0 1.29357e-05 -0.00737814 0 3.20808e-05 -0.00623555 0 4.88211e-05 -0.00284645 0
          -0.00349293 0.0102879 0 -0.00337806 0.097731 0 -0.00313617 0.148105 0 -0.00249904 0.137023 0
          -0.0015922 0.0991725 0 -0.000965268 0.0632414 0 -0.000603465 0.0366816 0 -0.000391441 0.0182913 0
          -0.000256003 0.0058825 0 -0.000157888 -0.00213535 0 -8.13769e-05 -0.00670719 0 -2.56977e-05 -0.0086227 0
          9.30738e-06 -0.00878366 0 2.69213e-05 -0.00795208 0 6.45203e-05 -0.00670317 0 9.72408e-05 -0.00303829 0
          -0.00209375 -0.0602509 0 -0.0020507 -0.00811545 0 -0.00235263 0.0457021 0 -0.00257404 0.0782063 0
          -0.00213225 0.0787602 0 -0.00152638 0.0612021 0 -0.00103618 0.0397785 0 -0.000695985 0.0216128 0
          -0.000459967 0.0083866 0 -0.000284266 -0.000464795 0 -0.000147065 -0.00566188 0 -4.74592e-05 -0.00793783 0
          1.48784e-05 -0.00828241 0 4.66571e-05 -0.00754766 0 0.000111725 -0.0063349 0 0.000167624 -0.00284568 0
          -0.00112686 -0.0887221 0 -0.000973813 -0.0642229 0 -0.00117739 -0.0358819 0 -0.00174889 -0.00149201 0
          -0.00197805 0.0234472 0 -0.00184983 0.0324 0 -0.00150181 0.0291085 0 -0.00110377 0.0200048 0
          -0.000756979 0.0100509 0 -0.000476671 0.00202291 0 -0.000250952 -0.00300409 0 -8.51618e-05 -0.0052231 0
          1.81609e-05 -0.00561005 0 7.11134e-05 -0.00506831 0 0.000171216 -0.00415246 0 0.000255593 -0.00182291 0
          -0.000537155 -0.0987491 0 -0.000372056 -0.0878579 0 -0.000359781 -0.0788704 0 -0.000689263 -0.0626317 0
          -0.00105556 -0.0424046 0 -0.00134653 -0.0234997 0 -0.00142995 -0.00996123 0 -0.00130141 -0.00259298 0
          -0.00103122 0.000522702 0 -0.000699001 0.0016871 0 -0.000377259 0.00216948 0 -0.000130246 0.00237581 0
          1.97958e-05 0.00237837 0 9.29623e-05 0.00220056 0 0.000214826 0.00192248 0 0.000315635 0.000896942 0
          -0.000158066 -0.101421 0 -8.96916e-05 -0.0952368 0 -5.54355e-05 -0.0932064 0 -0.000127057 -0.0878503 0
          -0.00023763 -0.0786843 0 -0.000406889 -0.0648448 0 -0.000571973 -0.0474915 0 -0.000637495 -0.0292311 0
          -0.00056662 -0.0129989 0 -0.00040343 -0.000805974 0 -0.000220322 0.00661306 0 -7.58712e-05 0.00982481 0
          1.03665e-05 0.0102798 0 5.08374e-05 0.00928823 0 0.000113237 0.00772168 0 0.000164371 0.00345209 0
          0.000158066 -0.101421 0 8.96916e-05 -0.0952368 0 5.54355e-05 -0.0932064 0 0.000127057 -0.0878503 0
          0.00023763 -0.0786843 0 0.000406889 -0.0648448 0 0.000571973 -0.0474915 0 0.000637495 -0.0292311 0
          0.00056662 -0.0129989 0 0.00040343 -0.000805974 0 0.000220322 0.00661306 0 7.58712e-05 0.00982481 0
          -1.03665e-05 0.0102798 0 -5.08374e-05 0.00928823 0 -0.000113237 0.00772168 0 -0.000164371 0.00345209 0
          0.000537155 -0.0987491 0 0.000372056 -0.0878579 0 0.000359781 -0.0788704 0 0.000689263 -0.0626317 0
          0.00105556 -0.0424046 0 0.00134653 -0.0234997 0 0.00142995 -0.00996123 0 0.00130141 -0.00259298 0
          0.00103122 0.000522702 0 0.000699001 0.0016871 0 0.000377259 0.00216948 0 0.000130246 0.00237581 0
          -1.97958e-05 0.00237837 0 -9.29623e-05 0.00220056 0 -0.000214826 0.00192248 0 -0.000315635 0.000896942 0
          0.00112686 -0.0887221 0 0.000973813 -0.0642229 0 0.00117739 -0.0358819 0 0.00174889 -0.00149201 0
          0.00197805 0.0234472 0 0.00184983 0.0324 0 0.00150181 0.0291085 0 0.00110377 0.0200048 0
          0.000756979 0.0100509 0 0.000476671 0.00202291 0 0.000250952 -0.00300409 0 8.51618e-05 -0.0052231 0
          -1.81609e-05 -0.00561005 0 -7.11134e-05 -0.00506831 0 -0.000171216 -0.00415246 0 -0.000255593 -0.00182291 0
          0.00209375 -0.0602509 0 0.0020507 -0.00811545 0 0.00235263 0.0457021 0 0.00257404 0.0782063 0
          0.00213225 0.0787602 0 0.00152638 0.0612021 0 0.00103618 0.0397785 0 0.000695985 0.0216128 0
          0.000459967 0.0083866 0 0.000284266 -0.000464795 0 0.000147065 -0.00566188 0 4.74592e-05 -0.00793783 0
          -1.48784e-05 -0.00828241 0 -4.66571e-05 -0.00754766 0 -0.000111725 -0.0063349 0 -0.000167624 -0.00284568 0
          0.00349293 0.0102879 0 0.00337806 0.097731 0 0.00313617 0.148105 0 0.00249904 0.137023 0
          0.0015922 0.0991725 0 0.000965268 0.0632414 0 0.000603465 0.0366816 0 0.000391441 0.0182913 0
          0.000256003 0.0058825 0 0.000157888 -0.00213535 0 8.13769e-05 -0.00670719 0 2.56977e-05 -0.0086227 0
          -9.30738e-06 -0.00878366 0 -2.69213e-05 -0.00795208 0 -6.45203e-05 -0.00670317 0 -9.72408e-05 -0.00303829 0
          0.00492836 0.171354 0 0.00428449 0.251161 0 0.0029895 0.230904 0 0.00178092 0.157047 0
          0.000936367 0.0957519 0 0.000513507 0.0560701 0 0.000307612 0.0310326 0 0.000196783 0.0148333 0
          0.000128886 0.004162 0 8.02082e-05 -0.00268861 0 4.19163e-05 -0.00655777 0 1.38032e-05 -0.00813365 0
          -4.00887e-06 -0.00818753 0 -1.29357e-05 -0.00737814 0 -3.20808e-05 -0.00623555 0 -4.88211e-05 -0.00284645 0
          0.00534085 0.564486 0 0.0040675 0.421255 0 0.00204657 0.264268 0 0.000934329 0.146047 0
          0.000423154 0.0809639 0 0.000215989 0.0457376 0 0.000126052 0.0251026 0 8.03507e-05 0.0121144 0
          5.3145e-05 0.00358962 0 3.37813e-05 -0.00193873 0 1.83378e-05 -0.00510657 0 6.82937e-06 -0.00643334 0
          -5.60579e-07 -0.00652766 0 -4.32251e-06 -0.00591378 0 -1.20553e-05 -0.00504073 0 -1.87671e-05 -0.00232417 0
          0.00255945 0.921012 0 0.00180182 0.5174 0 0.00071365 0.263463 0 0.000265085 0.130558 0
          0.000106854 0.0692344 0 5.15593e-05 0.0387612 0 2.95629e-05 0.0215135 0 1.88808e-05 0.0107581 0
          1.26729e-05 0.00367356 0 8.29467e-06 -0.00098772 0 4.74789e-06 -0.0037232 0 2.05144e-06 -0.00493179 0
          2.8768e-07 -0.00510986 0 -6.3952e-07 -0.00468561 0 -2.39643e-06 -0.00404098 0 -3.89167e-06 -0.0018824 0
        </DataArray>
        <DataArray type="Float32" Name="velocity_Air (m/s)" NumberOfComponents="3" format="ascii">
          2.03347 0.00267916 0 1.37897 0.0010795 0 1.11666 0.000426887 0 1.00968 0.000187442 0
          0.96041 9.55307e-05 0 0.934396 5.38733e-05 0 0.919605 3.10818e-05 0 0.911248 1.69209e-05 0
          0.907001 7.48344e-06 0 0.905511 1.08375e-06 0 0.905827 -2.8801e-06 0 0.907174 -4.84634e-06 0
          0.908968 -5.44017e-06 0 0.910824 -5.20275e-06 0 0.912541 -4.63938e-06 0 0.913737 -2.21373e-06 0
          2.33984 0.00664601 0 2.03676 0.00330798 0 1.80581 0.00156164 0 1.67115 0.000749762 0
          1.59931 0.000393727 0 1.56005 0.000220819 0 1.53833 0.000123742 0 1.52701 6.32594e-05 0
          1.52232 2.33119e-05 0 1.52195 -3.15995e-06 0 1.52425 -1.89016e-05 0 1.52792 -2.60699e-05 0
          1.53202 -2.74286e-05 0 1.53595 -2.53636e-05 0 1.5394 -2.20259e-05 0 1.54172 -1.03131e-05 0
          2.44843 0.00851422 0 2.31005 0.00543399 0 2.14426 0.0031586 0 2.01441 0.00169712 0
          1.9337 0.000932448 0 1.88672 0.00052666 0 1.86025 0.000290568 0 1.84651 0.000142153 0
          1.84097 4.46028e-05 0 1.84075 -1.89362e-05 0 1.84378 -5.56403e-05 0 1.84844 -7.13179e-05 0
          1.85358 -7.28868e-05 0 1.85847 -6.63083e-05 0 1.86273 -5.67288e-05 0 1.86558 -2.62331e-05 0
          2.49803 0.00912579 0 2.46232 0.00694271 0 2.3743 0.00490321 0 2.27223 0.00302249 0
          2.19204 0.00177942 0 2.13977 0.00103225 0 2.10869 0.000572841 0 2.09198 0.000277932 0
          2.08486 8.35561e-05 0 2.08402 -4.20542e-05 0 2.08702 -0.000113791 0 2.09198 -0.00014377 0
          2.09755 -0.000145919 0 2.10289 -0.000132156 0 2.10756 -0.0001123 0 2.11067 -5.15275e-05 0
          2.51968 0.00872265 0 2.5421 0.00741406 0 2.52668 0.00615928 0 2.4769 0.00447326 0
          2.41574 0.00294172 0 2.36524 0.00180796 0 2.3314 0.00103376 0 2.3118 0.000512749 0
          2.30262 0.000163788 0 2.3005 -6.22025e-05 0 2.30281 -0.000191546 0 2.30743 -0.00024605 0
          2.31286 -0.000250903 0 2.31814 -0.000227504 0 2.32278 -0.000192642 0 2.32586 -8.78464e-05 0
          2.52822 0.0074168 0 2.57721 0.00671251 0 2.60964 0.00619953 0 2.61905 0.00524078 0
          2.6032 0.00401342 0 2.57349 0.00276822 0 2.54498 0.00170114 0 2.52513 0.000890966 0
          2.51435 0.000321423 0 2.51054 -5.52711e-05 0 2.51137 -0.000274445 0 2.51474 -0.000369009 0
          2.51907 -0.000380965 0 2.52337 -0.000346393 0 2.52714 -0.000292157 0 2.52961 -0.000132331 0
          2.53112 0.00519947 0 2.59017 0.00486374 0 2.64365 0.00473439 0 2.68994 0.00441401 0
          2.72365 0.00387282 0 2.74058 0.00309457 0 2.74212 0.00218966 0 2.73538 0.00130713 0
          2.72788 0.000562883 0 2.72333 1.80692e-05 0 2.7219 -0.000310929 0 2.72231 -0.000453578 0
          2.72333 -0.00047382 0 2.72433 -0.000428922 0 2.72507 -0.000357693 0 2.72548 -0.00016031 0
          2.53183 0.00192689 0 2.59386 0.0018281 0 2.65404 0.00181478 0 2.71308 0.0017588 0
          2.7695 0.00165595 0 2.821 0.00146177 0 2.86411 0.00114735 0 2.89541 0.000746801 0
          2.91354 0.000350467 0 2.91997 3.84995e-05 0 2.91807 -0.000153858 0 2.91163 -0.000236943 0
          2.90361 -0.000248737 0 2.89581 -0.000224024 0 2.88906 -0.000185221 0 2.88465 -8.24314e-05 0
          2.53183 -0.00192689 0 2.59386 -0.0018281 0 2.65404 -0.00181478 0 2.71308 -0.0017588 0
          2.7695 -0.00165595 0 2.821 -0.00146177 0 2.86411 -0.00114735 0 2.89541 -0.000746801 0
          2.91354 -0.000350467 0 2.91997 -3.84995e-05 0 2.91807 0.000153858 0 2.91163 0.000236943 0
          2.90361 0.000248737 0 2.89581 0.000224024 0 2.88906 0.000185221 0 2.88465 8.24314e-05 0
          2.53112 -0.00519947 0 2.59017 -0.00486374 0 2.64365 -0.00473439 0 2.68994 -0.00441401 0
          2.72365 -0.00387282 0 2.74058 -0.00309457 0 2.74212 -0.00218966 0 2.73538 -0.00130713 0
          2.72788 -0.000562883 0 2.72333 -1.80692e-05 0 2.7219 0.000310929 0 2.72231 0.000453578 0
          2.72333 0.00047382 0 2.72433 0.000428922 0 2.72507 0.000357693 0 2.72548 0.00016031 0
          2.52822 -0.0074168 0 2.57721 -0.00671251 0 2.60964 -0.00619953 0 2.61905 -0.00524078 0
          2.6032 -0.00401342 0 2.57349 -0.00276822 0 2.54498 -0.00170114 0 2.52513 -0.000890966 0
          2.51435 -0.000321423 0 2.51054 5.52711e-05 0 2.51137 0.000274445 0 2.51474 0.000369009 0
          2.51907 0.000380965 0 2.52337 0.000346393 0 2.52714 0.000292157 0 2.52961 0.000132331 0
          2.51968 -0.00872265 0 2.5421 -0.00741406 0 2.52668 -0.00615928 0 2.4769 -0.00447326 0
          2.41574 -0.00294172 0 2.36524 -0.00180796 0 2.3314 -0.00103376 0 2.3118 -0.000512749 0
          2.30262 -0.000163788 0 2.3005 6.22025e-05 0 2.30281 0.000191546 0 2.30743 0.00024605 0
          2.31286 0.000250903 0 2.31814 0.000227504 0 2.32278 0.000192642 0 2.32586 8.78464e-05 0
          2.49803 -0.00912579 0 2.46232 -0.00694271 0 2.3743 -0.00490321 0 2.27223 -0.00302249 0
          2.19204 -0.00177942 0 2.13977 -0.00103225 0 2.10869 -0.000572841 0 2.09198 -0.000277932 0
          2.08486 -8.35561e-05 0 2.08402 4.20542e-05 0 2.08702 0.000113791 0 2.09198 0.00014377 0
          2.09755 0.000145919 0 2.10289 0.000132156 0 2.10756 0.0001123 0 2.11067 5.15275e-05 0
          2.44843 -0.00851422 0 2.31005 -0.00543399 0 2.14426 -0.0031586 0 2.01441 -0.00169712 0
          1.9337 -0.000932448 0 1.88672 -0.00052666 0 1.86025 -0.000290568 0 1.84651 -0.000142153 0
          1.84097 -4.46028e-05 0 1.84075 1.89362e-05 0 1.84378 5.56403e-05 0 1.84844 7.13179e-05 0
          1.85358 7.28868e-05 0 1.85847 6.63083e-05 0 1.86273 5.67288e-05 0 1.86558 2.62331e-05 0
          2.33984 -0.00664601 0 2.03676 -0.00330798 0 1.80581 -0.00156164 0 1.67115 -0.000749762 0
          1.59931 -0.000393727 0 1.56005 -0.000220819 0 1.53833 -0.000123742 0 1.52701 -6.32594e-05 0
          1.52232 -2.33119e-05 0 1.52195 3.15995e-06 0 1.52425 1.89016e-05 0 1.52792 2.60699e-05 0
          1.53202 2.74286e-05 0 1.53595 2.53636e-05 0 1.5394 2.20259e-05 0 1.54172 1.03131e-05 0
          2.03347 -0.00267916 0 1.37897 -0.0010795 0 1.11666 -0.000426887 0 1.00968 -0.000187442 0
          0.96041 -9.55307e-05 0 0.934396 -5.38733e-05 0 0.919605 -3.10818e-05 0 0.911248 -1.69209e-05 0
          0.907001 -7.48344e-06 0 0.905511 -1.08375e-06 0 0.905827 2.8801e-06 0 0.907174 4.84634e-06 0
          0.908968 5.44017e-06 0 0.910824 5.20275e-06 0 0.912541 4.63938e-06 0 0.913737 2.21373e-06 0
        </DataArray>
        <DataArray type="Float32" Name="process rank" NumberOfComponents="1" format="ascii">
          0 0 0 0 0 0 0 0 0 0 0 0
          0 0 0 0 0 0 0 0 0 0 0 0
          0 0 0 0 0 0 0 0 0 0 0 0
          0 0 0 0 0 0 0 0 0 0 0 0
          0 0 0 0 0 0 0 0 0 0 0 0
          0 0 0 0 0 0 0 0 0 0 0 0
          0 0 0 0 0 0 0 0 0 0 0 0
          0 0 0 0 0 0 0 0 0 0 0 0
          0 0 0 0 0 0 0 0 0 0 0 0
          0 0 0 0 0 0 0 0 0 0 0 0
          0 0 0 0 0 0 0 0 0 0 0 0
          0 0 0 0 0 0 0 0 0 0 0 0
          0 0 0 0 0 0 0 0 0 0 0 0
          0 0 0 0 0 0 0 0 0 0 0 0
          0 0 0 0 0 0 0 0 0 0 0 0
          0 0 0 0 0 0 0 0 0 0 0 0
          0 0 0 0 0 0 0 0 0 0 0 0
          0 0 0 0 0 0 0 0 0 0 0 0
          0 0 0 0 0 0 0 0 0 0 0 0
          0 0 0 0 0 0 0 0 0 0 0 0
          0 0 0 0 0 0 0 0 0 0 0 0
          0 0 0 0
        </DataArray>
      </CellData>
      <Points>
        <DataArray type="Float32" Name="Coordinates" NumberOfComponents="3" format="ascii">
          0 0 0 0.625 0 0 0 0.00358921 0 0.625 0.00358921 0
          1.25 0 0 1.25 0.00358921 0 1.875 0 0 1.875 0.00358921 0
          2.5 0 0 2.5 0.00358921 0 3.125 0 0 3.125 0.00358921 0
          3.75 0 0 3.75 0.00358921 0 4.375 0 0 4.375 0.00358921 0
          5 0 0 5 0.00358921 0 5.625 0 0 5.625 0.00358921 0
          6.25 0 0 6.25 0.00358921 0 6.875 0 0 6.875 0.00358921 0
          7.5 0 0 7.5 0.00358921 0 8.125 0 0 8.125 0.00358921 0
          8.75 0 0 8.75 0.00358921 0 9.375 0 0 9.375 0.00358921 0
          10 0 0 10 0.00358921 0 0 0.00861411 0 0.625 0.00861411 0
          1.25 0.00861411 0 1.875 0.00861411 0 2.5 0.00861411 0 3.125 0.00861411 0
          3.75 0.00861411 0 4.375 0.00861411 0 5 0.00861411 0 5.625 0.00861411 0
          6.25 0.00861411 0 6.875 0.00861411 0 7.5 0.00861411 0 8.125 0.00861411 0
          8.75 0.00861411 0 9.375 0.00861411 0 10 0.00861411 0 0 0.015649 0
          0.625 0.015649 0 1.25 0.015649 0 1.875 0.015649 0 2.5 0.015649 0
          3.125 0.015649 0 3.75 0.015649 0 4.375 0.015649 0 5 0.015649 0
          5.625 0.015649 0 6.25 0.015649 0 6.875 0.015649 0 7.5 0.015649 0
          8.125 0.015649 0 8.75 0.015649 0 9.375 0.015649 0 10 0.015649 0
          0 0.0254978 0 0.625 0.0254978 0 1.25 0.0254978 0 1.875 0.0254978 0
          2.5 0.0254978 0 3.125 0.0254978 0 3.75 0.0254978 0 4.375 0.0254978 0
          5 0.0254978 0 5.625 0.0254978 0 6.25 0.0254978 0 6.875 0.0254978 0
          7.5 0.0254978 0 8.125 0.0254978 0 8.75 0.0254978 0 9.375 0.0254978 0
          10 0.0254978 0 0 0.0392861 0 0.625 0.0392861 0 1.25 0.0392861 0
          1.875 0.0392861 0 2.5 0.0392861 0 3.125 0.0392861 0 3.75 0.0392861 0
          4.375 0.0392861 0 5 0.0392861 0 5.625 0.0392861 0 6.25 0.0392861 0
          6.875 0.0392861 0 7.5 0.0392861 0 8.125 0.0392861 0 8.75 0.0392861 0
          9.375 0.0392861 0 10 0.0392861 0 0 0.0585897 0 0.625 0.0585897 0
          1.25 0.0585897 0 1.875 0.0585897 0 2.5 0.0585897 0 3.125 0.0585897 0
          3.75 0.0585897 0 4.375 0.0585897 0 5 0.0585897 0 5.625 0.0585897 0
          6.25 0.0585897 0 6.875 0.0585897 0 7.5 0.0585897 0 8.125 0.0585897 0
          8.75 0.0585897 0 9.375 0.0585897 0 10 0.0585897 0 0 0.0856148 0
          0.625 0.0856148 0 1.25 0.0856148 0 1.875 0.0856148 0 2.5 0.0856148 0
          3.125 0.0856148 0 3.75 0.0856148 0 4.375 0.0856148 0 5 0.0856148 0
          5.625 0.0856148 0 6.25 0.0856148 0 6.875 0.0856148 0 7.5 0.0856148 0
          8.125 0.0856148 0 8.75 0.0856148 0 9.375 0.0856148 0 10 0.0856148 0
          0 0.12345 0 0.625 0.12345 0 1.25 0.12345 0 1.875 0.12345 0
          2.5 0.12345 0 3.125 0.12345 0 3.75 0.12345 0 4.375 0.12345 0
          5 0.12345 0 5.625 0.12345 0 6.25 0.12345 0 6.875 0.12345 0
          7.5 0.12345 0 8.125 0.12345 0 8.75 0.12345 0 9.375 0.12345 0
          10 0.12345 0 0 0.161285 0 0.625 0.161285 0 1.25 0.161285 0
          1.875 0.161285 0 2.5 0.161285 0 3.125 0.161285 0 3.75 0.161285 0
          4.375 0.161285 0 5 0.161285 0 5.625 0.161285 0 6.25 0.161285 0
          6.875 0.161285 0 7.5 0.161285 0 8.125 0.161285 0 8.75 0.161285 0
          9.375 0.161285 0 10 0.161285 0 0 0.18831 0 0.625 0.18831 0
          1.25 0.18831 0 1.875 0.18831 0 2.5 0.18831 0 3.125 0.18831 0
          3.75 0.18831 0 4.375 0.18831 0 5 0.18831 0 5.625 0.18831 0
          6.25 0.18831 0 6.875 0.18831 0 7.5 0.18831 0 8.125 0.18831 0
          8.75 0.18831 0 9.375 0.18831 0 10 0.18831 0 0 0.207614 0
          0.625 0.207614 0 1.25 0.207614 0 1.875 0.207614 0 2.5 0.207614 0
          3.125 0.207614 0 3.75 0.207614 0 4.375 0.207614 0 5 0.207614 0
          5.625 0.207614 0 6.25 0.207614 0 6.875 0.207614 0 7.5 0.207614 0
          8.125 0.207614 0 8.75 0.207614 0 9.375 0.207614 0 10 0.207614 0
          0 0.221402 0 0.625 0.221402 0 1.25 0.221402 0 1.875 0.221402 0
          2.5 0.221402 0 3.125 0.221402 0 3.75 0.221402 0 4.375 0.221402 0
          5 0.221402 0 5.625 0.221402 0 6.25 0.221402 0 6.875 0.221402 0
          7.5 0.221402 0 8.125 0.221402 0 8.75 0.221402 0 9.375 0.221402 0
          10 0.221402 0 0 0.231251 0 0.625 0.231251 0 1.25 0.231251 0
          1.875 0.231251 0 2.5 0.231251 0 3.125 0.231251 0 3.75 0.231251 0
          4.375 0.231251 0 5 0.231251 0 5.625 0.231251 0 6.25 0.231251 0
          6.875 0.231251 0 7.5 0.231251 0 8.125 0.231251 0 8.75 0.231251 0
          9.375 0.231251 0 10 0.231251 0 0 0.238286 0 0.625 0.238286 0
          1.25 0.238286 0 1.875 0.238286 0 2.5 0.238286 0 3.125 0.238286 0
          3.75 0.238286 0 4.375 0.238286 0 5 0.238286 0 5.625 0.238286 0
          6.25 0.238286 0 6.875 0.238286 0 7.5 0.238286 0 8.125 0.238286 0
          8.75 0.238286 0 9.375 0.238286 0 10 0.238286 0 0 0.243311 0
          0.625 0.243311 0 1.25 0.243311 0 1.875 0.243311 0 2.5 0.243311 0
          3.125 0.243311 0 3.75 0.243311 0 4.375 0.243311 0 5 0.243311 0
          5.625 0.243311 0 6.25 0.243311 0 6.875 0.243311 0 7.5 0.243311 0
          8.125 0.243311 0 8.75 0.243311 0 9.375 0.243311 0 10 0.243311 0
          0 0.2469 0 0.625 0.2469 0 1.25 0.2469 0 1.875 0.2469 0
          2.5 0.2469 0 3.125 0.2469 0 3.75 0.2469 0 4.375 0.2469 0
          5 0.2469 0 5.625 0.2469 0 6.25 0.2469 0 6.875 0.2469 0
          7.5 0.2469 0 8.125 0.2469 0 8.75 0.2469 0 9.375 0.2469 0
          10 0.2469 0
        </DataArray>
      </Points>
      <Cells>
        <DataArray type="Int32" Name="connectivity" NumberOfComponents="1" format="ascii">
          0 1 3 2 1 4 5 3 4 6 7 5
          6 8 9 7 8 10 11 9 10 12 13 11
          12 14 15 13 14 16 17 15 16 18 19 17
          18 20 21 19 20 22 23 21 22 24 25 23
          24 26 27 25 26 28 29 27 28 30 31 29
          30 32 33 31 2 3 35 34 3 5 36 35
          5 7 37 36 7 9 38 37 9 11 39 38
          11 13 40 39 13 15 41 40 15 17 42 41
          17 19 43 42 19 21 44 43 21 23 45 44
          23 25 46 45 25 27 47 46 27 29 48 47
          29 31 49 48 31 33 50 49 34 35 52 51
          35 36 53 52 36 37 54 53 37 38 55 54
          38 39 56 55 39 40 57 56 40 41 58 57
          41 42 59 58 42 43 60 59 43 44 61 60
          44 45 62 61 45 46 63 62 46 47 64 63
          47 48 65 64 48 49 66 65 49 50 67 66
          51 52 69 68 52 53 70 69 53 54 71 70
          54 55 72 71 55 56 73 72 56 57 74 73
          57 58 75 74 58 59 76 75 59 60 77 76
          60 61 78 77 61 62 79 78 62 63 80 79
          63 64 81 80 64 65 82 81 65 66 83 82
          66 67 84 83 68 69 86 85 69 70 87 86
          70 71 88 87 71 72 89 88 72 73 90 89
          73 74 91 90 74 75 92 91 75 76 93 92
          76 77 94 93 77 78 95 94 78 79 96 95
          79 80 97 96 80 81 98 97 81 82 99 98
          82 83 100 99 83 84 101 100 85 86 103 102
          86 87 104 103 87 88 105 104 88 89 106 105
          89 90 107 106 90 91 108 107 91 92 109 108
          92 93 110 109 93 94 111 110 94 95 112 111
          95 96 113 112 96 97 114 113 97 98 115 114
          98 99 116 115 99 100 117 116 100 101 118 117
          102 103 120 119 103 104 121 120 104 105 122 121
          105 106 123 122 106 107 124 123 107 108 125 124
          108 109 126 125 109 110 127 126 110 111 128 127
          111 112 129 128 112 113 130 129 113 114 131 130
          114 115 132 131 115 116 133 132 116 117 134 133
          117 118 135 134 119 120 137 136 120 121 138 137
          121 122 139 138 122 123 140 139 123 124 141 140
          124 125 142 141 125 126 143 142 126 127 144 143
          127 128 145 144 128 129 146 145 129 130 147 146
          130 131 148 147 131 132 149 148 132 133 150 149
          133 134 151 150 134 135 152 151 136 137 154 153
          137 138 155 154 138 139 156 155 139 140 157 156
          140 141 158 157 141 142 159 158 142 143 160 159
          143 144 161 160 144 145 162 161 145 146 163 162
          146 147 164 163 147 148 165 164 148 149 166 165
          149 150 167 166 150 151 168 167 151 152 169 168
          153 154 171 170 154 155 172 171 155 156 173 172
          156 157 174 173 157 158 175 174 158 159 176 175
          159 160 177 176 160 161 178 177 161 162 179 178
          162 163 180 179 163 164 181 180 164 165 182 181
          165 166 183 182 166 167 184 183 167 168 185 184
          168 169 186 185 170 171 188 187 171 172 189 188
          172 173 190 189 173 174 191 190 174 175 192 191
          175 176 193 192 176 177 194 193 177 178 195 194
          178 179 196 195 179 180 197 196 180 181 198 197
          181 182 199 198 182 183 200 199 183 184 201 200
          184 185 202 201 185 186 203 202 187 188 205 204
          188 189 206 205 189 190 207 206 190 191 208 207
          191 192 209 208 192 193 210 209 193 194 211 210
          194 195 212 211 195 196 213 212 196 197 214 213
          197 198 215 214 198 199 216 215 199 200 217 216
          200 201 218 217 201 202 219 218 202 203 220 219
          204 205 222 221 205 206 223 222 206 207 224 223
          207 208 225 224 208 209 226 225 209 210 227 226
          210 211 228 227 211 212 229 228 212 213 230 229
          213 214 231 230 214 215 232 231 215 216 233 232
          216 217 234 233 217 218 235 234 218 219 236 235
          219 220 237 236 221 222 239 238 222 223 240 239
          223 224 241 240 224 225 242 241 225 226 243 242
          226 227 244 243 227 228 245 244 228 229 246 245
          229 230 247 246 230 231 248 247 231 232 249 248
          232 233 250 249 233 234 251 250 234 235 252 251
          235 236 253 252 236 237 254 253 238 239 256 255
          239 240 257 256 240 241 258 257 241 242 259 258
          242 243 260 259 243 244 261 260 244 245 262 261
          245 246 263 262 246 247 264 263 247 248 265 264
          248 249 266 265 249 250 267 266 250 251 268 267
          251 252 269 268 252 253 270 269 253 254 271 270
          255 256 273 272 256 257 274 273 257 258 275 274
          258 259 276 275 259 260 277 276 260 261 278 277
          261 262 279 278 262 263 280 279 263 264 281 280
          264 265 282 281 265 266 283 282 266 267 284 283
          267 268 285 284 268 269 286 285 269 270 287 286
          270 271 288 287
        </DataArray>
        <DataArray type="Int32" Name="offsets" NumberOfComponents="1" format="ascii">
          4 8 12 16 20 24 28 32 36 40 44 48
          52 56 60 64 68 72 76 80 84 88 92 96
          100 104 108 112 116 120 124 128 132 136 140 144
          148 152 156 160 164 168 172 176 180 184 188 192
          196 200 204 208 212 216 220 224 228 232 236 240
          244 248 252 256 260 264 268 272 276 280 284 288
          292 296 300 304 308 312 316 320 324 328 332 336
          340 344 348 352 356 360 364 368 372 376 380 384
          388 392 396 400 404 408 412 416 420 424 428 432
          436 440 444 448 452 456 460 464 468 472 476 480
          484 488 492 496 500 504 508 512 516 520 524 528
          532 536 540 544 548 552 556 560 564 568 572 576
          580 584 588 592 596 600 604 608 612 616 620 624
          628 632 636 640 644 648 652 656 660 664 668 672
          676 680 684 688 692 696 700 704 708 712 716 720
          724 728 732 736 740 744 748 752 756 760 764 768
          772 776 780 784 788 792 796 800 804 808 812 816
          820 824 828 832 836 840 844 848 852 856 860 864
          868 872 876 880 884 888 892 896 900 904 908 912
          916 920 924 928 932 936 940 944 948 952 956 960
          964 968 972 976 980 984 988 992 996 1000 1004 1008
          1012 1016 1020 1024
        </DataArray>
        <DataArray type="UInt8" Name="types" NumberOfComponents="1" format="ascii">
          9 9 9 9 9 9 9 9 9 9 9 9
          9 9 9 9 9 9 9 9 9 9 9 9
          9 9 9 9 9 9 9 9 9 9 9 9
          9 9 9 9 9 9 9 9 9 9 9 9
          9 9 9 9 9 9 9 9 9 9 9 9
          9 9 9 9 9 9 9 9 9 9 9 9
          9 9 9 9 9 9 9 9 9 9 9 9
          9 9 9 9 9 9 9 9 9 9 9 9
          9 9 9 9 9 9 9 9 9 9 9 9
          9 9 9 9 9 9 9 9 9 9 9 9
          9 9 9 9 9 9 9 9 9 9 9 9
          9 9 9 9 9 9 9 9 9 9 9 9
          9 9 9 9 9 9 9 9 9 9 9 9
          9 9 9 9 9 9 9 9 9 9 9 9
          9 9 9 9 9 9 9 9 9 9 9 9
          9 9 9 9 9 9 9 9 9 9 9 9
          9 9 9 9 9 9 9 9 9 9 9 9
          9 9 9 9 9 9 9 9 9 9 9 9
          9 9 9 9 9 9 9 9 9 9 9 9
          9 9 9 9 9 9 9 9 9 9 9 9
          9 9 9 9 9 9 9 9 9 9 9 9
          9 9 9 9
        </DataArray>
      </Cells>
    </Piece>
  </UnstructuredGrid>
</VTKFile>
